%chk=mmp2_partial_r_08_02_02.chk
%mem=3000MB
%nprocshared=4
#p oniom(pm3:amber=hardfirst) nosymm geom=connectivity iop(2/15=3) test 
opt=(quadmac,maxstep=5)

MMP2 reduced model

-2 1 1 1 1 1
 N-N3-0.096600   -1   41.507000     23.202000     52.275000    L
 H-H-0.216500    -1   40.560000     22.841000     52.249000    L
 H-H-0.216500    -1   41.687000     23.653000     51.384000    L
 H-H-0.216500    -1   41.559000     23.902000     53.006000    L
 C-CT--0.001500  -1   42.490000     22.115000     52.511000    L
 H-HP-0.118000   -1   42.377000     21.793000     53.546000    L
 C-CT-0.021200   -1   42.207000     20.897000     51.605000    L
 H-HC-0.028300   -1   42.875000     20.087000     51.897000    L
 H-HC-0.028300   -1   41.186000     20.562000     51.790000    L
 C-CT--0.004800  -1   42.384000     21.151000     50.096000    L
 H-HC-0.012100   -1   41.676000     21.906000     49.762000    L
 H-HC-0.012100   -1   43.392000     21.520000     49.916000    L
 C-CT--0.060800  -1   42.180000     19.886000     49.249000    L
 H-HC-0.063300   -1   42.584000     20.065000     48.250000    L
 H-HC-0.063300   -1   42.734000     19.064000     49.698000    L
 C-CT--0.018100  -1   40.698000     19.515000     49.121000    L
 H-HP-0.117100   -1   40.248000     19.462000     50.116000    L
 H-HP-0.117100   -1   40.190000     20.309000     48.565000    L
 N-N3--0.376400  -1   40.518000     18.220000     48.426000    L
 H-H-0.338200    -1   40.883000     17.447000     48.979000    L
 H-H-0.338200    -1   39.534000     18.043000     48.246000    L
 H-H-0.338200    -1   41.008000     18.201000     47.530000    L
 C-C-0.721400    -1   43.921000     22.648000     52.362000    L
 O-O--0.601300   -1   44.090000     23.607000     51.612000    L
 N-N--0.088116   -1   44.936000     22.076000     53.043000    L
 C-CT--0.011906  -1   44.826000     20.973000     53.991000    L
 H-H1-0.043951   -1   44.423000     20.075000     53.524000    L
 H-H1-0.043950   -1   44.198000     21.278000     54.831000    L
 C-CT-0.013059   -1   46.247000     20.707000     54.489000    L
 H-HC-0.019574   -1   46.750000     20.010000     53.819000    L
 H-HC-0.019574   -1   46.254000     20.333000     55.513000    L
 C-CT--0.003351  -1   46.910000     22.076000     54.379000    L
 H-HC-0.019352   -1   47.996000     21.998000     54.305000    L
 H-HC-0.019352   -1   46.634000     22.682000     55.244000    L
 C-CT--0.034577  -1   46.275000     22.670000     53.118000    L
 H-H1-0.059977   -1   46.188000     23.749000     53.251000    L
 C-C-0.333720    -1   47.155000     22.432000     51.883000    L
 O-O--0.434559   -1   48.162000     23.116000     51.736000    L
 N-N--0.435875   -1   46.797000     21.503000     50.987000    L
 H-H-0.251302    -1   45.969000     20.949000     51.150000    L
 C-CT--0.038773  -1   47.519000     21.252000     49.729000    L
 H-H1-0.129478   -1   48.072000     22.150000     49.451000    L
 C-CT--0.108273  -1   48.518000     20.082000     49.892000    L
 H-HC-0.045214   -1   47.957000     19.154000     50.019000    L
 H-HC-0.045214   -1   49.105000     20.000000     48.976000    L
 C-CT-0.033341   -1   49.480000     20.234000     51.083000    L
 H-HC-0.010208   -1   49.973000     21.204000     51.022000    L
 H-HC-0.010208   -1   48.898000     20.190000     52.004000    L
 C-CT--0.047841  -1   50.557000     19.138000     51.131000    L
 H-HC-0.070715   -1   50.143000     18.194000     50.775000    L
 H-HC-0.070715   -1   51.386000     19.419000     50.480000    L
 C-CT--0.069974  -1   51.039000     18.962000     52.579000    L
 H-HP-0.119522   -1   51.419000     19.915000     52.958000    L
 H-HP-0.119522   -1   50.183000     18.679000     53.198000    L
 N-N3--0.250358  -1   52.083000     17.921000     52.712000    L
 H-H-0.294561    -1   52.337000     17.790000     53.690000    L
 H-H-0.294561    -1   51.764000     17.016000     52.371000    L
 H-H-0.294561    -1   52.916000     18.155000     52.196000    L
 C-C-0.725129    -1   46.525000     20.941000     48.598000    L
 O-O--0.563157   -1   45.479000     20.336000     48.844000    L
 N-N--0.427579    0   46.836903     21.326484     47.357578    L
 H-H-0.241716     0   47.709639     21.814789     47.215855    L
 C-CT--0.020082   0   46.037514     20.970988     46.173215    L
 H-H1-0.106629    0   45.001847     21.270850     46.343432    L
 C-CT--0.098364   0   46.569486     21.747943     44.957876    L
 H-HC-0.065424    0   47.624325     21.512268     44.810961    L
 H-HC-0.065424    0   46.030972     21.417067     44.068387    L
 C-C*--0.099797   0   46.418572     23.234797     45.053537    L
 C-CW--0.174053   0   47.359418     24.091116     45.512673    L
 H-H4-0.170633    0   48.349782     23.813525     45.850614    L
 N-NA--0.298433   0   46.840612     25.370174     45.529920    L
 H-H-0.322375     0   47.301360     26.180377     45.941161    L
 C-CN-0.141523    0   45.543565     25.405878     45.075356    L
 C-CA--0.210701   0   44.606832     26.440662     44.945957    L
 H-HA-0.125512    0   44.883202     27.444969     45.229759    L
 C-CA--0.133022   0   43.329634     26.147467     44.439263    L
 H-HA-0.119467    0   42.599313     26.934545     44.311705    L
 C-CA--0.164054   0   43.016313     24.827814     44.066125    L
 H-HA-0.119250    0   42.050521     24.606034     43.633916    L
 C-CA--0.153992   0   43.962769     23.796561     44.217351    L
 H-HA-0.123084    0   43.715632     22.792242     43.913035    L
 C-CB-0.089641    0   45.249229     24.054460     44.736791    L
 C-C-0.584129     0   46.045609     19.451082     45.909853    L
 O-O--0.494730    0   47.048983     18.787397     46.158033    L
 N-N--0.558201   -1   44.957000     18.904000     45.366000    L
 H-H-0.319676    -1   44.181000     19.530000     45.154000    L
 C-CT-0.007225   -1   44.814000     17.480000     44.999000    L
 H-H1-0.082375   -1   45.109000     16.861000     45.847000    L
 C-CT--0.047555  -1   43.337000     17.179000     44.686000    L
 H-HC--0.014836  -1   43.033000     17.765000     43.816000    L
 H-HC--0.014836  -1   43.239000     16.124000     44.428000    L
 C-C-0.745168    -1   42.394000     17.476000     45.856000    L
 O-O2--0.730385  -1   42.595000     16.918000     46.960000    L
 O-O2--0.730385  -1   41.443000     18.276000     45.676000    L
 C-C-0.443199    -1   45.690000     17.071000     43.793000    L
 O-O--0.501445   -1   45.922000     15.884000     43.550000    L
 N-N--0.451047   -1   47.710000     23.806000     37.859000    L
 H-H-0.328831    -1   48.514000     24.191000     37.362000    L
 C-CT--0.101874  -1   46.750000     24.785000     38.403000    L
 H-H1-0.174193   -1   45.873000     24.278000     38.809000    L
 C-CT-0.062238   -1   47.445000     25.575000     39.545000    L
 H-HC-0.061662   -1   48.313000     26.063000     39.104000    L
 C-CT--0.129989  -1   46.550000     26.682000     40.131000    L
 H-HC-0.030227   -1   47.050000     27.158000     40.975000    L
 H-HC-0.030227   -1   46.351000     27.451000     39.385000    L
 H-HC-0.030227   -1   45.607000     26.260000     40.475000    L
 C-CT-0.022230   -1   47.985000     24.686000     40.695000    L
 H-HC-0.011551   -1   48.703000     23.970000     40.296000    L
 H-HC-0.011551   -1   48.536000     25.318000     41.392000    L
 C-CT--0.101251  -1   46.925000     23.915000     41.495000    L
 H-HC-0.023792   -1   46.332000     23.280000     40.841000    L
 H-HC-0.023792   -1   47.424000     23.286000     42.233000    L
 H-HC-0.023792   -1   46.267000     24.609000     42.018000    L
 C-C-0.569383    -1   46.261000     25.712000     37.276000    L
 O-O--0.619535   -1   47.019000     26.012000     36.347000    L
 N-N--0.487560   -1   44.084000     29.484000     36.229000    L
 H-H-0.263521    -1   44.423000     29.382000     35.277000    L
 C-CT-0.009614   -1   43.679000     30.820000     36.679000    L
 H-H1-0.095501   -1   43.034000     30.689000     37.542000    L
 C-CT--0.051853  -1   44.903000     31.616000     37.158000    L
 H-HC-0.019145   -1   44.549000     32.465000     37.744000    L
 H-HC-0.019145   -1   45.483000     30.992000     37.839000    L
 C-CA-0.112601   -1   45.831000     32.146000     36.080000    L
 C-CA--0.183461  -1   46.877000     31.341000     35.587000    L
 H-HA-0.132715   -1   46.981000     30.323000     35.933000    L
 C-CA--0.181823  -1   47.809000     31.873000     34.675000    L
 H-HA-0.137303   -1   48.634000     31.273000     34.320000    L
 C-C-0.206277    -1   47.698000     33.216000     34.256000    L
 O-OH--0.421233  -1   48.642000     33.750000     33.437000    L
 H-HO-0.329691   -1   48.548000     34.711000     33.348000    L
 C-CA--0.181823  -1   46.631000     34.015000     34.726000    L
 H-HA-0.137303   -1   46.547000     35.043000     34.407000    L
 C-CA--0.183461  -1   45.700000     33.477000     35.635000    L
 H-HA-0.132715   -1   44.905000     34.100000     36.017000    L
 C-C-0.622290    -1   42.848000     31.585000     35.640000    L
 O-O--0.526607   -1   42.881000     31.276000     34.447000    L
 N-N--0.451047   -1   40.971000     35.829000     34.977000    L
 H-H-0.328831    -1   41.072000     35.639000     33.981000    L
 C-CT--0.101874  -1   40.839000     37.233000     35.425000    L
 H-H1-0.174193   -1   40.862000     37.263000     36.514000    L
 C-CT-0.062238   -1   42.017000     38.108000     34.915000    L
 H-HC-0.061662   -1   41.886000     38.269000     33.843000    L
 C-CT--0.129989  -1   41.957000     39.476000     35.628000    L
 H-HC-0.030227   -1   42.759000     40.125000     35.283000    L
 H-HC-0.030227   -1   41.019000     39.983000     35.407000    L
 H-HC-0.030227   -1   42.050000     39.346000     36.707000    L
 C-CT-0.022230   -1   43.401000     37.441000     35.131000    L
 H-HC-0.011551   -1   43.564000     37.276000     36.195000    L
 H-HC-0.011551   -1   43.416000     36.471000     34.634000    L
 C-CT--0.101251  -1   44.592000     38.233000     34.570000    L
 H-HC-0.023792   -1   45.493000     37.621000     34.633000    L
 H-HC-0.023792   -1   44.412000     38.489000     33.526000    L
 H-HC-0.023792   -1   44.756000     39.143000     35.147000    L
 C-C-0.569383    -1   39.480000     37.803000     34.993000    L
 O-O--0.619535   -1   39.092000     37.657000     33.835000    L
 N-N--0.450087   -1   49.081000     44.487000     34.360000    L
 H-H-0.440048    -1   48.475000     45.110000     33.830000    L
 C-CT--0.051858  -1   48.490000     43.721000     35.476000    L
 H-H1--0.026204  -1   49.081000     43.916000     36.373000    L
 C-CT-0.395217   -1   47.036000     44.185000     35.743000    L
 H-HC--0.115672  -1   46.516000     44.238000     34.790000    L
 C-CT--0.090132  -1   46.231000     43.236000     36.646000    L
 H-HC--0.008985  -1   46.777000     43.039000     37.567000    L
 H-HC--0.008985  -1   45.265000     43.679000     36.890000    L
 H-HC--0.008985  -1   46.046000     42.297000     36.125000    L
 C-CT--0.090132  -1   47.013000     45.593000     36.363000    L
 H-HC--0.008985  -1   47.490000     45.581000     37.341000    L
 H-HC--0.008985  -1   47.541000     46.297000     35.724000    L
 H-HC--0.008985  -1   45.983000     45.934000     36.472000    L
 C-C-0.447359    -1   48.541000     42.209000     35.191000    L
 O-O--0.404629   -1   48.955000     41.431000     36.048000    L
 N-N--0.404773   -1   52.165000     41.010000     35.609000    L
 H-H-0.294276    -1   51.397000     41.630000     35.367000    L
 C-CT--0.027733  -1   52.528000     40.877000     37.021000    L
 H-H1-0.120802   -1   53.609000     40.987000     37.120000    L
 C-CT--0.229951  -1   51.842000     42.002000     37.813000    L
 H-HC-0.077428   -1   50.760000     41.947000     37.699000    L
 H-HC-0.077428   -1   52.070000     41.903000     38.873000    L
 H-HC-0.077428   -1   52.184000     42.975000     37.461000    L
 C-C-0.570224    -1   52.157000     39.497000     37.590000    L
 O-O--0.555129   -1   52.975000     38.868000     38.266000    L
 N-N--0.371290    0   50.937906     39.009158     37.334326    L
 H-H-0.234053     0   50.270943     39.609555     36.865754    L
 C-CT--0.030057   0   50.514273     37.673985     37.772499    L
 H-H1-0.102448    0   50.679132     37.611062     38.849403    L
 C-CT--0.098720   0   49.010725     37.473138     37.526498    L
 H-HC-0.060989    0   48.806259     37.560464     36.458805    L
 H-HC-0.060989    0   48.742753     36.459855     37.831822    L
 C-CA-0.021313    0   48.120105     38.436668     38.298365    L
 C-CA--0.083109   0   48.258705     38.570860     39.695779    L
 H-HA-0.098466    0   48.982488     37.983268     40.241017    L
 C-CA--0.156974   0   47.450736     39.474939     40.406363    L
 H-HA-0.123731    0   47.562517     39.577752     41.476327    L
 C-CA--0.099824   0   46.486735     40.240350     39.730453    L
 H-HA-0.114679    0   45.859293     40.927798     40.283368    L
 C-CA--0.156974   0   46.329514     40.095414     38.341448    L
 H-HA-0.123731    0   45.570518     40.668928     37.829871    L
 C-CA--0.083109   0   47.144737     39.199484     37.626064    L
 H-HA-0.098466    0   47.012465     39.103369     36.558938    L
 C-C-0.547987     0   51.378941     36.558926     37.161390    L
 O-O--0.506795    0   51.757657     35.636218     37.875257    L
 N-N--0.404773   -1   51.777000     36.664000     35.882000    L
 H-H-0.294276    -1   51.463000     37.461000     35.341000    L
 C-CT--0.027733  -1   52.702000     35.712000     35.258000    L
 H-H1-0.120802   -1   52.243000     34.721000     35.265000    L
 C-CT--0.229951  -1   52.918000     36.128000     33.796000    L
 H-HC-0.077428   -1   53.576000     35.409000     33.306000    L
 H-HC-0.077428   -1   51.963000     36.144000     33.269000    L
 H-HC-0.077428   -1   53.374000     37.117000     33.743000    L
 C-C-0.570224    -1   54.030000     35.591000     36.035000    L
 O-O--0.555129   -1   54.484000     34.480000     36.313000    L
 N-N--0.300879   -1   54.610000     36.720000     36.469000    L
 H-H-0.233693    -1   54.179000     37.602000     36.226000    L
 C-CT--0.131381  -1   55.815000     36.736000     37.315000    L
 H-H1-0.053266   -1   56.611000     36.201000     36.794000    L
 C-CT-0.036707   -1   56.286000     38.179000     37.555000    L
 H-HC-0.028012   -1   55.461000     38.777000     37.936000    L
 H-HC-0.028012   -1   57.071000     38.173000     38.311000    L
 C-CT-0.012454   -1   56.834000     38.822000     36.274000    L
 H-HC-0.002964   -1   57.770000     38.342000     35.993000    L
 H-HC-0.002964   -1   56.121000     38.674000     35.466000    L
 C-CT-0.126329   -1   57.055000     40.329000     36.426000    L
 H-H1-0.068148   -1   57.356000     40.729000     35.458000    L
 H-H1-0.068148   -1   56.110000     40.795000     36.712000    L
 N-N2--0.464890  -1   58.095000     40.660000     37.411000    L
 H-H-0.326274    -1   58.689000     39.897000     37.732000    L
 C-CA-0.565543   -1   58.418000     41.887000     37.798000    L
 N-N2--0.685774  -1   57.764000     42.939000     37.353000    L
 H-H-0.391052    -1   57.045000     42.821000     36.648000    L
 H-H-0.391052    -1   58.062000     43.878000     37.591000    L
 N-N2--0.685774  -1   59.415000     42.070000     38.633000    L
 H-H-0.391052    -1   59.979000     41.288000     38.952000    L
 H-H-0.391052    -1   59.687000     43.006000     38.918000    L
 C-C-0.730308    -1   55.583000     36.024000     38.654000    L
 O-O--0.578332   -1   56.375000     35.165000     39.045000    L
 N-N--0.404773   -1   54.472000     36.313000     39.337000    L
 H-H-0.294276    -1   53.850000     37.024000     38.970000    L
 C-CT--0.027733  -1   54.122000     35.653000     40.598000    L
 H-H1-0.120802   -1   54.942000     35.808000     41.304000    L
 C-CT--0.229951  -1   52.876000     36.338000     41.170000    L
 H-HC-0.077428   -1   52.028000     36.200000     40.499000    L
 H-HC-0.077428   -1   52.638000     35.912000     42.145000    L
 H-HC-0.077428   -1   53.062000     37.406000     41.295000    L
 C-C-0.570224    -1   53.966000     34.121000     40.454000    L
 O-O--0.555129   -1   54.456000     33.381000     41.307000    L
 N-N--0.371290   -1   53.378000     33.630000     39.354000    L
 H-H-0.234053    -1   52.944000     34.276000     38.703000    L
 C-CT--0.030057  -1   53.332000     32.195000     39.044000    L
 H-H1-0.102448   -1   52.987000     31.665000     39.933000    L
 C-CT--0.098720  -1   52.336000     31.932000     37.902000    L
 H-HC-0.060989   -1   52.608000     32.547000     37.042000    L
 H-HC-0.060989   -1   52.432000     30.891000     37.592000    L
 C-CA-0.021313   -1   50.876000     32.166000     38.254000    L
 C-CA--0.083109  -1   50.310000     31.541000     39.383000    L
 H-HA-0.098466   -1   50.909000     30.890000     40.004000    L
 C-CA--0.156974  -1   48.961000     31.755000     39.712000    L
 H-HA-0.123731   -1   48.544000     31.289000     40.591000    L
 C-CA--0.099824  -1   48.165000     32.593000     38.913000    L
 H-HA-0.114679   -1   47.130000     32.767000     39.173000    L
 C-CA--0.156974  -1   48.724000     33.215000     37.784000    L
 H-HA-0.123731   -1   48.117000     33.863000     37.169000    L
 C-CA--0.083109  -1   50.071000     32.992000     37.447000    L
 H-HA-0.098466   -1   50.486000     33.467000     36.570000    L
 C-C-0.547987    -1   54.711000     31.604000     38.709000    L
 O-O--0.506795   -1   55.004000     30.480000     39.119000    L
 N-N--0.387353   -1   55.579000     32.339000     38.004000    L
 H-H-0.300605    -1   55.259000     33.224000     37.622000    L
 C-CT-0.037470   -1   56.966000     31.926000     37.751000    L
 H-H1-0.152255   -1   56.979000     30.935000     37.293000    L
 C-CT--0.032112  -1   57.641000     32.909000     36.783000    L
 H-HC-0.030995   -1   57.468000     33.928000     37.124000    L
 H-HC-0.030995   -1   58.717000     32.736000     36.794000    L
 C-CT--0.020264  -1   57.153000     32.770000     35.332000    L
 H-HC-0.030791   -1   57.544000     31.849000     34.899000    L
 H-HC-0.030791   -1   56.066000     32.713000     35.312000    L
 C-C-0.667812    -1   57.601000     33.955000     34.476000    L
 O-O--0.628483   -1   58.645000     34.559000     34.682000    L
 N-N--0.883393   -1   56.838000     34.366000     33.494000    L
 H-H-0.408312    -1   57.134000     35.207000     33.009000    L
 H-H-0.408312    -1   55.990000     33.860000     33.262000    L
 C-C-0.418577    -1   57.774000     31.816000     39.054000    L
 O-O--0.565310   -1   58.429000     30.797000     39.266000    L
 N-N--0.450087   -1   57.703000     32.806000     39.951000    L
 H-H-0.440048    -1   57.185000     33.651000     39.702000    L
 C-CT--0.051858  -1   58.414000     32.773000     41.248000    L
 H-H1--0.026204  -1   59.482000     32.709000     41.031000    L
 C-CT-0.395217   -1   58.179000     34.070000     42.062000    L
 H-HC--0.115672  -1   57.109000     34.288000     42.069000    L
 C-CT--0.090132  -1   58.660000     33.980000     43.523000    L
 H-HC--0.008985  -1   58.070000     33.247000     44.075000    L
 H-HC--0.008985  -1   59.712000     33.693000     43.556000    L
 H-HC--0.008985  -1   58.538000     34.945000     44.015000    L
 C-CT--0.090132  -1   58.905000     35.254000     41.396000    L
 H-HC--0.008985  -1   59.984000     35.094000     41.423000    L
 H-HC--0.008985  -1   58.596000     35.361000     40.357000    L
 H-HC--0.008985  -1   58.669000     36.178000     41.923000    L
 C-C-0.447359    -1   58.037000     31.526000     42.064000    L
 O-O--0.404629   -1   58.922000     30.806000     42.525000    L
 N-N--0.427579    0   56.738721     31.235056     42.218223    L
 H-H-0.241716     0   56.037783     31.874294     41.863235    L
 C-CT--0.020082   0   56.283692     30.009900     42.885372    L
 H-H1-0.106629    0   56.845521     29.919825     43.815081    L
 C-CT--0.098364   0   54.801864     30.148243     43.268379    L
 H-HC-0.065424    0   54.231479     30.502622     42.408084    L
 H-HC-0.065424    0   54.418370     29.160905     43.531447    L
 C-C*--0.099797   0   54.557822     31.044678     44.451447    L
 C-CW--0.174053   0   53.809840     32.173384     44.461444    L
 H-H4-0.170633    0   53.289594     32.568351     43.599145    L
 N-NA--0.298433   0   53.823053     32.730832     45.730419    L
 H-H-0.322375     0   53.334993     33.574076     46.018847    L
 C-CN-0.141523    0   54.608161     31.998375     46.592194    L
 C-CA--0.210701   0   54.952137     32.164842     47.940706    L
 H-HA-0.125512    0   54.550150     32.996419     48.499102    L
 C-CA--0.133022   0   55.823621     31.244390     48.545451    L
 H-HA-0.119467    0   56.113344     31.368544     49.580136    L
 C-CA--0.164054   0   56.315700     30.158212     47.801136    L
 H-HA-0.119250    0   56.991129     29.454547     48.264302    L
 C-CA--0.153992   0   55.939403     29.984343     46.455672    L
 H-HA-0.123084    0   56.318476     29.137802     45.903520    L
 C-CB-0.089641    0   55.087766     30.908620     45.808567    L
 C-C-0.584129     0   56.593767     28.709090     42.111041    L
 O-O--0.494730    0   56.757338     27.661097     42.736561    L
 N-N--0.541430   -1   56.738000     28.742000     40.781000    L
 H-H-0.345415    -1   56.720000     29.652000     40.333000    L
 C-CT-0.118140   -1   57.151000     27.564000     39.990000    L
 H-H1-0.142177   -1   56.471000     26.734000     40.190000    L
 C-CT-0.146998   -1   57.108000     27.849000     38.477000    L
 H-H1-0.040081   -1   57.799000     28.655000     38.235000    L
 H-H1-0.040081   -1   57.443000     26.957000     37.946000    L
 O-OH--0.640312  -1   55.807000     28.185000     38.012000    L
 H-HO-0.446255   -1   55.487000     28.955000     38.525000    L
 C-C-0.483424    -1   58.568000     27.093000     40.370000    L
 O-O--0.580829   -1   58.814000     25.894000     40.484000    L
 N-N--0.450087   -1   60.198000     26.665000     42.973000    L
 H-H-0.440048    -1   59.325000     27.085000     42.675000    L
 C-CT--0.051858  -1   60.268000     26.004000     44.293000    L
 H-H1--0.026204  -1   61.202000     25.443000     44.333000    L
 C-CT-0.395217   -1   60.305000     27.054000     45.434000    L
 H-HC--0.115672  -1   60.343000     26.528000     46.388000    L
 C-CT--0.090132  -1   61.572000     27.921000     45.356000    L
 H-HC--0.008985  -1   61.610000     28.580000     46.219000    L
 H-HC--0.008985  -1   62.459000     27.285000     45.360000    L
 H-HC--0.008985  -1   61.570000     28.533000     44.454000    L
 C-CT--0.090132  -1   59.059000     27.959000     45.436000    L
 H-HC--0.008985  -1   58.158000     27.355000     45.521000    L
 H-HC--0.008985  -1   59.095000     28.634000     46.290000    L
 H-HC--0.008985  -1   59.009000     28.550000     44.522000    L
 C-C-0.447359    -1   59.147000     24.970000     44.524000    L
 O-O--0.404629   -1   58.951000     24.510000     45.652000    L
 N-N--0.245382   -1   58.412000     24.592000     43.465000    L
 H-H-0.255339    -1   58.664000     24.951000     42.550000    L
 C-CT--0.271249  -1   57.315000     23.606000     43.499000    L
 H-H1-0.163757   -1   57.455000     22.948000     44.355000    L
 C-CT-0.237868   -1   55.945000     24.295000     43.644000    L
 H-H1-0.044688   -1   55.170000     23.534000     43.680000    L
 C-CT--0.176489  -1   55.784000     25.143000     44.902000    L
 H-HC-0.060019   -1   56.016000     24.540000     45.778000    L
 H-HC-0.060019   -1   56.449000     26.004000     44.872000    L
 H-HC-0.060019   -1   54.754000     25.494000     44.974000    L
 O-OH--0.601931  -1   55.698000     25.089000     42.516000    L
 H-HO-0.405484   -1   56.076000     25.971000     42.676000    L
 C-C-0.559878    -1   57.332000     22.742000     42.228000    L
 O-O--0.552020   -1   57.958000     23.135000     41.240000    L
 N-N--0.355153   -1   54.413000     22.694000     40.861000    L
 H-H-0.262417    -1   54.811000     23.078000     41.708000    L
 C-CT--0.101497  -1   53.173000     23.299000     40.379000    L
 H-H1-0.136951   -1   52.513000     22.500000     40.050000    L
 C-CT--0.144399  -1   52.476000     24.076000     41.516000    L
 H-HC-0.052533   -1   53.126000     24.895000     41.829000    L
 H-HC-0.052533   -1   51.564000     24.523000     41.115000    L
 C-CT-0.191982   -1   52.103000     23.234000     42.757000    L
 H-HC-0.000825   -1   53.011000     22.819000     43.196000    L
 C-CT--0.123036  -1   51.443000     24.132000     43.810000    L
 H-HC-0.022376   -1   50.535000     24.585000     43.408000    L
 H-HC-0.022376   -1   51.188000     23.545000     44.693000    L
 H-HC-0.022376   -1   52.138000     24.917000     44.106000    L
 C-CT--0.123036  -1   51.164000     22.068000     42.413000    L
 H-HC-0.022376   -1   51.683000     21.353000     41.777000    L
 H-HC-0.022376   -1   50.863000     21.553000     43.326000    L
 H-HC-0.022376   -1   50.274000     22.436000     41.901000    L
 C-C-0.573471    -1   53.436000     24.196000     39.166000    L
 O-O--0.557847   -1   54.392000     24.971000     39.147000    L
 N-N--0.371290   -1   51.245000     26.442000     35.747000    L
 H-H-0.234053    -1   52.121000     26.774000     35.360000    L
 C-CT--0.030057  -1   50.119000     27.380000     35.720000    L
 H-H1-0.102448   -1   49.237000     26.907000     36.146000    L
 C-CT--0.098720  -1   50.481000     28.606000     36.581000    L
 H-HC-0.060989   -1   51.312000     29.135000     36.109000    L
 H-HC-0.060989   -1   49.633000     29.294000     36.587000    L
 C-CA-0.021313   -1   50.862000     28.300000     38.020000    L
 C-CA--0.083109  -1   52.207000     28.060000     38.365000    L
 H-HA-0.098466   -1   52.977000     28.102000     37.609000    L
 C-CA--0.156974  -1   52.554000     27.754000     39.693000    L
 H-HA-0.123731   -1   53.587000     27.558000     39.949000    L
 C-CA--0.099824  -1   51.561000     27.698000     40.685000    L
 H-HA-0.114679   -1   51.830000     27.464000     41.706000    L
 C-CA--0.156974  -1   50.219000     27.954000     40.348000    L
 H-HA-0.123731   -1   49.455000     27.921000     41.110000    L
 C-CA--0.083109  -1   49.871000     28.257000     39.019000    L
 H-HA-0.098466   -1   48.841000     28.461000     38.766000    L
 C-C-0.547987    -1   49.793000     27.833000     34.293000    L
 O-O--0.506795   -1   50.696000     28.089000     33.499000    L
 N-N--0.558201   -1   40.780000     27.317000     39.357000    L
 H-H-0.319676    -1   41.294000     27.013000     38.537000    L
 C-CT-0.007225   -1   41.377000     27.095000     40.679000    L
 H-H1-0.082375   -1   40.666000     26.548000     41.301000    L
 C-CT--0.047555  -1   42.656000     26.250000     40.589000    L
 H-HC--0.014836  -1   43.416000     26.813000     40.052000    L
 H-HC--0.014836  -1   43.033000     26.079000     41.595000    L
 C-C-0.745168    -1   42.457000     24.898000     39.904000    L
 O-O2--0.730385  -1   43.092000     24.690000     38.844000    L
 O-O2--0.730385  -1   41.674000     24.054000     40.401000    L
 C-C-0.443199    -1   41.639000     28.458000     41.339000    L
 O-O--0.501445   -1   41.081000     28.728000     42.399000    L
 N-N--0.451047   -1   42.280000     29.382000     40.615000    L
 H-H-0.328831    -1   42.673000     29.080000     39.723000    L
 C-CT--0.101874  -1   42.559000     30.759000     41.050000    L
 H-H1-0.174193   -1   42.203000     30.893000     42.073000    L
 C-CT-0.062238   -1   44.092000     31.002000     41.077000    L
 H-HC-0.061662   -1   44.479000     30.855000     40.068000    L
 C-CT--0.129989  -1   44.409000     32.451000     41.504000    L
 H-HC-0.030227   -1   43.958000     33.161000     40.815000    L
 H-HC-0.030227   -1   44.023000     32.645000     42.503000    L
 H-HC-0.030227   -1   45.483000     32.631000     41.491000    L
 C-CT-0.022230   -1   44.788000     29.978000     42.014000    L
 H-HC-0.011551   -1   44.412000     30.099000     43.028000    L
 H-HC-0.011551   -1   44.544000     28.965000     41.692000    L
 C-CT--0.101251  -1   46.318000     30.059000     42.043000    L
 H-HC-0.023792   -1   46.708000     29.240000     42.648000    L
 H-HC-0.023792   -1   46.706000     29.965000     41.028000    L
 H-HC-0.023792   -1   46.647000     30.998000     42.485000    L
 C-C-0.569383    -1   41.780000     31.762000     40.175000    L
 O-O--0.619535   -1   42.252000     32.207000     39.128000    L
 N-N--0.394918   -1   40.556000     32.114000     40.579000    L
 H-H-0.280537    -1   40.187000     31.696000     41.426000    L
 C-CT--0.087681  -1   39.855000     33.283000     40.015000    L
 H-H1-0.123080   -1   39.950000     33.271000     38.928000    L
 C-CT-0.019227   -1   38.363000     33.255000     40.383000    L
 H-HC-0.048840   -1   38.260000     33.211000     41.465000    L
 H-HC-0.048840   -1   37.895000     34.183000     40.054000    L
 C-CT--0.208167  -1   37.609000     32.073000     39.758000    L
 H-H1-0.124228   -1   38.102000     31.145000     40.052000    L
 H-H1-0.124228   -1   36.606000     32.052000     40.185000    L
 S-S--0.211958   -1   37.450000     32.093000     37.951000    L
 C-CT--0.284698  -1   36.350000     33.514000     37.739000    L
 H-H1-0.128394   -1   36.862000     34.431000     38.028000    L
 H-H1-0.128394   -1   36.043000     33.595000     36.697000    L
 H-H1-0.128394   -1   35.459000     33.392000     38.359000    L
 C-C-0.599684    -1   40.491000     34.580000     40.537000    L
 O-O--0.566424   -1   40.863000     34.656000     41.707000    L
 N-N--0.451047   -1   40.579000     35.619000     39.703000    L