%chk=mmp2_full_r.chk
%mem=3700MB
%nprocshared=4
#p oniom(amber=hardfirst:) nosymm geom=connectivity iop(2/15=3) test

ONIOM inputfile generated by pdb2oniom from PDB file mmp2_full_r.pdb. No
connectivity generated.
Please use GaussView read mmp2_full_r.gjf, and generate connectivity
information.

-11 1 1 1 1 1
 N-N3-0.096600   -1   41.50700000   23.20200000   52.27500000 L
 H-H-0.216500    -1   40.56000000   22.84100000   52.24900000 L
 H-H-0.216500    -1   41.68700000   23.65300000   51.38400000 L
 H-H-0.216500    -1   41.55900000   23.90200000   53.00600000 L
 C-CT--0.001500  -1   42.49000000   22.11500000   52.51100000 L
 H-HP-0.118000   -1   42.37700000   21.79300000   53.54600000 L
 C-CT-0.021200   -1   42.20700000   20.89700000   51.60500000 L
 H-HC-0.028300   -1   42.87500000   20.08700000   51.89700000 L
 H-HC-0.028300   -1   41.18600000   20.56200000   51.79000000 L
 C-CT--0.004800  -1   42.38400000   21.15100000   50.09600000 L
 H-HC-0.012100   -1   41.67600000   21.90600000   49.76200000 L
 H-HC-0.012100   -1   43.39200000   21.52000000   49.91600000 L
 C-CT--0.060800  -1   42.18000000   19.88600000   49.24900000 L
 H-HC-0.063300   -1   42.58400000   20.06500000   48.25000000 L
 H-HC-0.063300   -1   42.73400000   19.06400000   49.69800000 L
 C-CT--0.018100  -1   40.69800000   19.51500000   49.12100000 L
 H-HP-0.117100   -1   40.24800000   19.46200000   50.11600000 L
 H-HP-0.117100   -1   40.19000000   20.30900000   48.56500000 L
 N-N3--0.376400  -1   40.51800000   18.22000000   48.42600000 L
 H-H-0.338200    -1   40.88300000   17.44700000   48.97900000 L
 H-H-0.338200    -1   39.53400000   18.04300000   48.24600000 L
 H-H-0.338200    -1   41.00800000   18.20100000   47.53000000 L
 C-C-0.721400    -1   43.92100000   22.64800000   52.36200000 L
 O-O--0.601300   -1   44.09000000   23.60700000   51.61200000 L
 N-N--0.088116   -1   44.93600000   22.07600000   53.04300000 L
 C-CT--0.011906  -1   44.82600000   20.97300000   53.99100000 L
 H-H1-0.043951   -1   44.42300000   20.07500000   53.52400000 L
 H-H1-0.043950   -1   44.19800000   21.27800000   54.83100000 L
 C-CT-0.013059   -1   46.24700000   20.70700000   54.48900000 L
 H-HC-0.019574   -1   46.75000000   20.01000000   53.81900000 L
 H-HC-0.019574   -1   46.25400000   20.33300000   55.51300000 L
 C-CT--0.003351  -1   46.91000000   22.07600000   54.37900000 L
 H-HC-0.019352   -1   47.99600000   21.99800000   54.30500000 L
 H-HC-0.019352   -1   46.63400000   22.68200000   55.24400000 L
 C-CT--0.034577  -1   46.27500000   22.67000000   53.11800000 L
 H-H1-0.059977   -1   46.18800000   23.74900000   53.25100000 L
 C-C-0.333720    -1   47.15500000   22.43200000   51.88300000 L
 O-O--0.434559   -1   48.16200000   23.11600000   51.73600000 L
 N-N--0.435875   -1   46.79700000   21.50300000   50.98700000 L
 H-H-0.251302    -1   45.96900000   20.94900000   51.15000000 L
 C-CT--0.038773  -1   47.51900000   21.25200000   49.72900000 L
 H-H1-0.129478   -1   48.07200000   22.15000000   49.45100000 L
 C-CT--0.108273  -1   48.51800000   20.08200000   49.89200000 L
 H-HC-0.045214   -1   47.95700000   19.15400000   50.01900000 L
 H-HC-0.045214   -1   49.10500000   20.00000000   48.97600000 L
 C-CT-0.033341   -1   49.48000000   20.23400000   51.08300000 L
 H-HC-0.010208   -1   49.97300000   21.20400000   51.02200000 L
 H-HC-0.010208   -1   48.89800000   20.19000000   52.00400000 L
 C-CT--0.047841  -1   50.55700000   19.13800000   51.13100000 L
 H-HC-0.070715   -1   50.14300000   18.19400000   50.77500000 L
 H-HC-0.070715   -1   51.38600000   19.41900000   50.48000000 L
 C-CT--0.069974  -1   51.03900000   18.96200000   52.57900000 L
 H-HP-0.119522   -1   51.41900000   19.91500000   52.95800000 L
 H-HP-0.119522   -1   50.18300000   18.67900000   53.19800000 L
 N-N3--0.250358  -1   52.08300000   17.92100000   52.71200000 L
 H-H-0.294561    -1   52.33700000   17.79000000   53.69000000 L
 H-H-0.294561    -1   51.76400000   17.01600000   52.37100000 L
 H-H-0.294561    -1   52.91600000   18.15500000   52.19600000 L
 C-C-0.725129    -1   46.52500000   20.94100000   48.59800000 L
 O-O--0.563157   -1   45.47900000   20.33600000   48.84400000 L
 N-N--0.427579    0   46.84800000   21.31800000   47.35800000 L
 H-H-0.241716     0   47.71300000   21.81700000   47.21100000 L
 C-CT--0.020082   0   46.04400000   20.95900000   46.18100000 L
 H-H1-0.106629    0   45.01100000   21.27300000   46.35100000 L
 C-CT--0.098364   0   46.57700000   21.71900000   44.95300000 L
 H-HC-0.065424    0   47.63000000   21.47600000   44.80400000 L
 H-HC-0.065424    0   46.03500000   21.38000000   44.07000000 L
 C-C*--0.099797   0   46.43200000   23.21000000   45.02800000 L
 C-CW--0.174053   0   47.38000000   24.07500000   45.45600000 L
 H-H4-0.170633    0   48.37400000   23.79900000   45.78600000 L
 N-NA--0.298433   0   46.87100000   25.35900000   45.45200000 L
 H-H-0.322375     0   47.35300000   26.16900000   45.83900000 L
 C-CN-0.141523    0   45.56900000   25.39100000   45.01300000 L
 C-CA--0.210701   0   44.63600000   26.42800000   44.87000000 L
 H-HA-0.125512    0   44.91500000   27.44000000   45.12300000 L
 C-CA--0.133022   0   43.34700000   26.12800000   44.39900000 L
 H-HA-0.119467    0   42.61400000   26.91400000   44.27800000 L
 C-CA--0.164054   0   43.01900000   24.80100000   44.07100000 L
 H-HA-0.119250    0   42.03300000   24.57100000   43.69000000 L
 C-CA--0.153992   0   43.96300000   23.76800000   44.22600000 L
 H-HA-0.123084    0   43.69200000   22.75700000   43.96900000 L
 C-CB-0.089641    0   45.26200000   24.03100000   44.71200000 L
 C-C-0.584129     0   46.03300000   19.43400000   45.94800000 L
 O-O--0.494730    0   47.00900000   18.74300000   46.24900000 L
 N-N--0.558201   -1   44.95700000   18.90400000   45.36600000 L
 H-H-0.319676    -1   44.18100000   19.53000000   45.15400000 L
 C-CT-0.007225   -1   44.81400000   17.48000000   44.99900000 L
 H-H1-0.082375   -1   45.10900000   16.86100000   45.84700000 L
 C-CT--0.047555  -1   43.33700000   17.17900000   44.68600000 L
 H-HC--0.014836  -1   43.03300000   17.76500000   43.81600000 L
 H-HC--0.014836  -1   43.23900000   16.12400000   44.42800000 L
 C-C-0.745168    -1   42.39400000   17.47600000   45.85600000 L
 O-O2--0.730385  -1   42.59500000   16.91800000   46.96000000 L
 O-O2--0.730385  -1   41.44300000   18.27600000   45.67600000 L
 C-C-0.443199    -1   45.69000000   17.07100000   43.79300000 L
 O-O--0.501445   -1   45.92200000   15.88400000   43.55000000 L
 N-N--0.435875   -1   46.18700000   18.06300000   43.04600000 L
 H-H-0.251302    -1   45.99400000   19.00100000   43.36400000 L
 C-CT--0.038773  -1   46.77500000   17.93300000   41.70700000 L
 H-H1-0.129478   -1   47.05700000   16.89800000   41.53200000 L
 C-CT--0.108273  -1   45.68800000   18.30600000   40.68100000 L
 H-HC-0.045214   -1   46.07600000   18.13800000   39.67700000 L
 H-HC-0.045214   -1   44.83400000   17.64000000   40.81700000 L
 C-CT-0.033341   -1   45.21200000   19.76600000   40.79700000 L
 H-HC-0.010208   -1   44.74200000   19.92600000   41.76900000 L
 H-HC-0.010208   -1   46.06100000   20.44300000   40.70100000 L
 C-CT--0.047841  -1   44.19500000   20.07700000   39.69800000 L
 H-HC-0.070715   -1   44.66400000   19.94100000   38.72100000 L
 H-HC-0.070715   -1   43.35700000   19.38700000   39.79700000 L
 C-CT--0.069974  -1   43.68500000   21.51400000   39.83100000 L
 H-HP-0.119522   -1   43.15600000   21.61900000   40.78100000 L
 H-HP-0.119522   -1   44.53900000   22.19700000   39.84200000 L
 N-N3--0.250358  -1   42.78500000   21.88200000   38.71500000 L
 H-H-0.294561    -1   42.35700000   22.78900000   38.90400000 L
 H-H-0.294561    -1   43.30800000   21.98000000   37.85200000 L
 H-H-0.294561    -1   42.04600000   21.20000000   38.58000000 L
 C-C-0.725129    -1   48.05500000   18.77000000   41.52600000 L
 O-O--0.563157   -1   48.35600000   19.63900000   42.34900000 L
 N-N--0.430106   -1   48.78500000   18.53200000   40.43200000 L
 H-H-0.254543    -1   48.46600000   17.80700000   39.79800000 L
 C-CT-0.044609   -1   50.11900000   19.09400000   40.18200000 L
 H-H1-0.059601   -1   50.46900000   19.57300000   41.09600000 L
 C-CT--0.093650  -1   51.11200000   17.95400000   39.87200000 L
 H-HC-0.043321   -1   50.76000000   17.38200000   39.01200000 L
 H-HC-0.043321   -1   52.07300000   18.39300000   39.60800000 L
 C-C-0.583519    -1   51.36500000   16.99400000   41.03800000 L
 O-O--0.526813   -1   50.67800000   16.99200000   42.05300000 L
 N-N--0.781735   -1   52.38700000   16.16500000   40.94500000 L
 H-H-0.355079    -1   52.54600000   15.50200000   41.68700000 L
 H-H-0.355079    -1   53.00600000   16.17000000   40.14400000 L
 C-C-0.617141    -1   50.13000000   20.19000000   39.09000000 L
 O-O--0.523909   -1   51.15500000   20.84400000   38.88800000 L
 N-N--0.387353   -1   49.00600000   20.45800000   38.41900000 L
 H-H-0.300605    -1   48.22000000   19.82700000   38.53300000 L
 C-CT-0.037470   -1   48.81700000   21.63100000   37.55500000 L
 H-H1-0.152255   -1   49.71800000   22.24700000   37.53700000 L
 C-CT--0.032112  -1   48.48300000   21.21200000   36.11900000 L
 H-HC-0.030995   -1   47.50000000   20.73400000   36.11200000 L
 H-HC-0.030995   -1   48.43000000   22.12900000   35.53300000 L
 C-CT--0.020264  -1   49.47500000   20.27700000   35.41700000 L
 H-HC-0.030791   -1   50.47100000   20.72100000   35.43900000 L
 H-HC-0.030791   -1   49.51200000   19.32000000   35.93700000 L
 C-C-0.667812    -1   49.08000000   20.02700000   33.95600000 L
 O-O--0.628483   -1   48.10900000   20.56800000   33.42300000 L
 N-N--0.883393   -1   49.81800000   19.20200000   33.25300000 L
 H-H-0.408312    -1   49.63600000   19.07200000   32.26400000 L
 H-H-0.408312    -1   50.57800000   18.69800000   33.70500000 L
 C-C-0.418577    -1   47.66200000   22.49100000   38.07800000 L
 O-O--0.565310   -1   46.68400000   21.96500000   38.60500000 L
 N-N--0.451047   -1   47.71000000   23.80600000   37.85900000 L
 H-H-0.328831    -1   48.51400000   24.19100000   37.36200000 L
 C-CT--0.101874  -1   46.75000000   24.78500000   38.40300000 L
 H-H1-0.174193   -1   45.87300000   24.27800000   38.80900000 L
 C-CT-0.062238   -1   47.44500000   25.57500000   39.54500000 L
 H-HC-0.061662   -1   48.31300000   26.06300000   39.10400000 L
 C-CT--0.129989  -1   46.55000000   26.68200000   40.13100000 L
 H-HC-0.030227   -1   47.05000000   27.15800000   40.97500000 L
 H-HC-0.030227   -1   46.35100000   27.45100000   39.38500000 L
 H-HC-0.030227   -1   45.60700000   26.26000000   40.47500000 L
 C-CT-0.022230   -1   47.98500000   24.68600000   40.69500000 L
 H-HC-0.011551   -1   48.70300000   23.97000000   40.29600000 L
 H-HC-0.011551   -1   48.53600000   25.31800000   41.39200000 L
 C-CT--0.101251  -1   46.92500000   23.91500000   41.49500000 L
 H-HC-0.023792   -1   46.33200000   23.28000000   40.84100000 L
 H-HC-0.023792   -1   47.42400000   23.28600000   42.23300000 L
 H-HC-0.023792   -1   46.26700000   24.60900000   42.01800000 L
 C-C-0.569383    -1   46.26100000   25.71200000   37.27600000 L
 O-O--0.619535   -1   47.01900000   26.01200000   36.34700000 L
 N-N--0.245382   -1   45.01200000   26.18100000   37.35800000 L
 H-H-0.255339    -1   44.44400000   25.88600000   38.14600000 L
 C-CT--0.271249  -1   44.37900000   27.07900000   36.37600000 L
 H-H1-0.163757   -1   45.08300000   27.29500000   35.57200000 L
 C-CT-0.237868   -1   43.13300000   26.44500000   35.74000000 L
 H-H1-0.044688   -1   42.66200000   27.18700000   35.09400000 L
 C-CT--0.176489  -1   43.49400000   25.23400000   34.88200000 L
 H-HC-0.060019   -1   42.60400000   24.86500000   34.37200000 L
 H-HC-0.060019   -1   44.22800000   25.52300000   34.12900000 L
 H-HC-0.060019   -1   43.90600000   24.43900000   35.50000000 L
 O-OH--0.601931  -1   42.19400000   26.04900000   36.72200000 L
 H-HO-0.405484   -1   42.65000000   25.48200000   37.37800000 L
 C-C-0.559878    -1   44.02100000   28.41000000   37.01400000 L
 O-O--0.552020   -1   43.64900000   28.46400000   38.18600000 L
 N-N--0.487560   -1   44.08400000   29.48400000   36.22900000 L
 H-H-0.263521    -1   44.42300000   29.38200000   35.27700000 L
 C-CT-0.009614   -1   43.67900000   30.82000000   36.67900000 L
 H-H1-0.095501   -1   43.03400000   30.68900000   37.54200000 L
 C-CT--0.051853  -1   44.90300000   31.61600000   37.15800000 L
 H-HC-0.019145   -1   44.54900000   32.46500000   37.74400000 L
 H-HC-0.019145   -1   45.48300000   30.99200000   37.83900000 L
 C-CA-0.112601   -1   45.83100000   32.14600000   36.08000000 L
 C-CA--0.183461  -1   46.87700000   31.34100000   35.58700000 L
 H-HA-0.132715   -1   46.98100000   30.32300000   35.93300000 L
 C-CA--0.181823  -1   47.80900000   31.87300000   34.67500000 L
 H-HA-0.137303   -1   48.63400000   31.27300000   34.32000000 L
 C-C-0.206277    -1   47.69800000   33.21600000   34.25600000 L
 O-OH--0.421233  -1   48.64200000   33.75000000   33.43700000 L
 H-HO-0.329691   -1   48.54800000   34.71100000   33.34800000 L
 C-CA--0.181823  -1   46.63100000   34.01500000   34.72600000 L
 H-HA-0.137303   -1   46.54700000   35.04300000   34.40700000 L
 C-CA--0.183461  -1   45.70000000   33.47700000   35.63500000 L
 H-HA-0.132715   -1   44.90500000   34.10000000   36.01700000 L
 C-C-0.622290    -1   42.84800000   31.58500000   35.64000000 L
 O-O--0.526607   -1   42.88100000   31.27600000   34.44700000 L
 N-N--0.300879   -1   42.07700000   32.58000000   36.09100000 L
 H-H-0.233693    -1   42.07600000   32.76900000   37.09000000 L
 C-CT--0.131381  -1   41.21100000   33.39200000   35.22400000 L
 H-H1-0.053266   -1   41.69700000   33.49700000   34.25600000 L
 C-CT-0.036707   -1   39.87400000   32.65400000   35.02900000 L
 H-HC-0.028012   -1   40.08000000   31.68200000   34.58300000 L
 H-HC-0.028012   -1   39.41100000   32.49700000   36.00100000 L
 C-CT-0.012454   -1   38.89500000   33.40400000   34.12000000 L
 H-HC-0.002964   -1   38.60100000   34.34000000   34.59700000 L
 H-HC-0.002964   -1   39.38800000   33.62900000   33.17600000 L
 C-CT-0.126329   -1   37.63100000   32.59500000   33.82200000 L
 H-H1-0.068148   -1   37.90800000   31.65600000   33.34000000 L
 H-H1-0.068148   -1   37.11100000   32.37800000   34.75700000 L
 N-N2--0.464890  -1   36.75600000   33.36300000   32.92800000 L
 H-H-0.326274    -1   37.13000000   34.24900000   32.58700000 L
 C-CA-0.565543   -1   35.53700000   33.03800000   32.52900000 L
 N-N2--0.685774  -1   34.91600000   31.95400000   32.93800000 L
 H-H-0.391052    -1   35.34100000   31.31700000   33.60200000 L
 H-H-0.391052    -1   33.98100000   31.78800000   32.58600000 L
 N-N2--0.685774  -1   34.89700000   33.81600000   31.68900000 L
 H-H-0.391052    -1   35.34200000   34.64500000   31.31900000 L
 H-H-0.391052    -1   33.98000000   33.54100000   31.36700000 L
 C-C-0.730308    -1   40.99500000   34.78700000   35.81200000 L
 O-O--0.578332   -1   40.81700000   34.91500000   37.02100000 L
 N-N--0.451047   -1   40.97100000   35.82900000   34.97700000 L
 H-H-0.328831    -1   41.07200000   35.63900000   33.98100000 L
 C-CT--0.101874  -1   40.83900000   37.23300000   35.42500000 L
 H-H1-0.174193   -1   40.86200000   37.26300000   36.51400000 L
 C-CT-0.062238   -1   42.01700000   38.10800000   34.91500000 L
 H-HC-0.061662   -1   41.88600000   38.26900000   33.84300000 L
 C-CT--0.129989  -1   41.95700000   39.47600000   35.62800000 L
 H-HC-0.030227   -1   42.75900000   40.12500000   35.28300000 L
 H-HC-0.030227   -1   41.01900000   39.98300000   35.40700000 L
 H-HC-0.030227   -1   42.05000000   39.34600000   36.70700000 L
 C-CT-0.022230   -1   43.40100000   37.44100000   35.13100000 L
 H-HC-0.011551   -1   43.56400000   37.27600000   36.19500000 L
 H-HC-0.011551   -1   43.41600000   36.47100000   34.63400000 L
 C-CT--0.101251  -1   44.59200000   38.23300000   34.57000000 L
 H-HC-0.023792   -1   45.49300000   37.62100000   34.63300000 L
 H-HC-0.023792   -1   44.41200000   38.48900000   33.52600000 L
 H-HC-0.023792   -1   44.75600000   39.14300000   35.14700000 L
 C-C-0.569383    -1   39.48000000   37.80300000   34.99300000 L
 O-O--0.619535   -1   39.09200000   37.65700000   33.83500000 L
 N-N--0.451047   -1   38.76500000   38.45000000   35.92100000 L
 H-H-0.328831    -1   39.13600000   38.46000000   36.87000000 L
 C-CT--0.101874  -1   37.41900000   39.03100000   35.70600000 L
 H-H1-0.174193   -1   37.28800000   39.19200000   34.63400000 L
 C-CT-0.062238   -1   36.30800000   38.04600000   36.16400000 L
 H-HC-0.061662   -1   35.34700000   38.53600000   35.99600000 L
 C-CT--0.129989  -1   36.29400000   36.77100000   35.30100000 L
 H-HC-0.030227   -1   37.17700000   36.16400000   35.49900000 L
 H-HC-0.030227   -1   35.40300000   36.18100000   35.51400000 L
 H-HC-0.030227   -1   36.27200000   37.04300000   34.24500000 L
 C-CT-0.022230   -1   36.42400000   37.71200000   37.66900000 L
 H-HC-0.011551   -1   37.28200000   37.06000000   37.83700000 L
 H-HC-0.011551   -1   36.58600000   38.63300000   38.22500000 L
 C-CT--0.101251  -1   35.17300000   37.04400000   38.25100000 L
 H-HC-0.023792   -1   34.30400000   37.68500000   38.10100000 L
 H-HC-0.023792   -1   34.99800000   36.08100000   37.77500000 L
 H-HC-0.023792   -1   35.31400000   36.88400000   39.32000000 L
 C-C-0.569383    -1   37.25100000   40.43400000   36.33500000 L
 O-O--0.619535   -1   36.13200000   40.85500000   36.65400000 L
 N-N--0.374282   -1   38.35000000   41.15800000   36.57600000 L
 H-H-0.253981    -1   39.24500000   40.77600000   36.30500000 L
 C-CT--0.128844  -1   38.31900000   42.56000000   37.01400000 L
 H-HC-0.088859   -1   37.74200000   43.12900000   36.28900000 L
 H-HC-0.088859   -1   37.79500000   42.64800000   37.96500000 L
 C-C-0.580584    -1   39.68500000   43.22500000   37.15000000 L
 O-O--0.509157   -1   40.67900000   42.55400000   37.41900000 L
 N-N--0.487560   -1   39.70700000   44.55400000   37.01300000 L
 H-H-0.263521    -1   38.81100000   45.01000000   36.88000000 L
 C-CT-0.009614   -1   40.91100000   45.40700000   36.95200000 L
 H-H1-0.095501   -1   41.74500000   44.89100000   37.42900000 L
 C-CT--0.051853  -1   41.28200000   45.64400000   35.47300000 L
 H-HC-0.019145   -1   40.47000000   46.19100000   34.99100000 L
 H-HC-0.019145   -1   42.16900000   46.27800000   35.42500000 L
 C-CA-0.112601   -1   41.57200000   44.38800000   34.66800000 L
 C-CA--0.183461  -1   42.87100000   43.84200000   34.64200000 L
 H-HA-0.132715   -1   43.66700000   44.31700000   35.19700000 L
 C-CA--0.181823  -1   43.13700000   42.67800000   33.89400000 L
 H-HA-0.137303   -1   44.13300000   42.25800000   33.87100000 L
 C-C-0.206277    -1   42.09500000   42.04900000   33.17400000 L
 O-OH--0.421233  -1   42.33600000   40.91100000   32.46800000 L
 H-HO-0.329691   -1   41.53600000   40.56800000   32.06300000 L
 C-CA--0.181823  -1   40.79500000   42.59800000   33.19700000 L
 H-HA-0.137303   -1   39.99100000   42.11900000   32.65700000 L
 C-CA--0.183461  -1   40.54000000   43.76600000   33.93800000 L
 H-HA-0.132715   -1   39.54200000   44.17400000   33.96700000 L
 C-C-0.622290    -1   40.70900000   46.75000000   37.70000000 L
 O-O--0.526607   -1   39.65900000   46.97100000   38.30500000 L
 N-N--0.245382   -1   41.69300000   47.66100000   37.65500000 L
 H-H-0.255339    -1   42.50100000   47.46400000   37.08000000 L
 C-CT--0.271249  -1   41.68100000   48.97700000   38.32700000 L
 H-H1-0.163757   -1   40.70300000   49.13800000   38.77800000 L
 C-CT-0.237868   -1   42.70900000   48.97400000   39.47100000 L
 H-H1-0.044688   -1   42.45700000   48.17100000   40.16500000 L
 C-CT--0.176489  -1   44.15900000   48.78200000   39.01600000 L
 H-HC-0.060019   -1   44.80900000   48.77600000   39.89000000 L
 H-HC-0.060019   -1   44.27300000   47.83200000   38.49600000 L
 H-HC-0.060019   -1   44.46300000   49.59400000   38.35500000 L
 O-OH--0.601931  -1   42.64200000   50.19100000   40.16400000 L
 H-HO-0.405484   -1   41.80700000   50.20300000   40.68200000 L
 C-C-0.559878    -1   41.94000000   50.09400000   37.29900000 L
 O-O--0.552020   -1   42.56200000   49.80000000   36.27600000 L
 N-N--0.088116   -1   41.46300000   51.34300000   37.49900000 L
 C-CT--0.011906  -1   40.54800000   51.78400000   38.53800000 L
 H-H1-0.043951   -1   41.12700000   52.10800000   39.40200000 L
 H-H1-0.043950   -1   39.83500000   51.01700000   38.83000000 L
 C-CT-0.013059   -1   39.81800000   52.98500000   37.94900000 L
 H-HC-0.019574   -1   39.44200000   53.64600000   38.73000000 L
 H-HC-0.019574   -1   39.01100000   52.65100000   37.29700000 L
 C-CT--0.003351  -1   40.91000000   53.64600000   37.11700000 L
 H-HC-0.019352   -1   41.49500000   54.30300000   37.76200000 L
 H-HC-0.019352   -1   40.49000000   54.21300000   36.28700000 L
 C-CT--0.034577  -1   41.77500000   52.47500000   36.62400000 L
 H-H1-0.059977   -1   41.49600000   52.22200000   35.60500000 L
 C-C-0.333720    -1   43.25100000   52.88400000   36.64100000 L
 O-O--0.434559   -1   43.72400000   53.47300000   35.67000000 L
 N-N--0.558201   -1   43.96900000   52.62000000   37.73900000 L
 H-H-0.319676    -1   43.52800000   52.13200000   38.51100000 L
 C-CT-0.007225   -1   45.28800000   53.21300000   37.98000000 L
 H-H1-0.082375   -1   45.21400000   54.27400000   37.74900000 L
 C-CT--0.047555  -1   45.66800000   53.07600000   39.46500000 L
 H-HC--0.014836  -1   45.64600000   52.01800000   39.73800000 L
 H-HC--0.014836  -1   46.69300000   53.42900000   39.59500000 L
 C-C-0.745168    -1   44.78500000   53.87000000   40.43500000 L
 O-O2--0.730385  -1   44.24900000   54.94200000   40.06200000 L
 O-O2--0.730385  -1   44.66800000   53.42800000   41.59900000 L
 C-C-0.443199    -1   46.41700000   52.62600000   37.11100000 L
 O-O--0.501445   -1   47.43500000   53.29900000   36.90700000 L
 N-N--0.355153   -1   46.25700000   51.39400000   36.60700000 L
 H-H-0.262417    -1   45.35500000   50.95000000   36.73100000 L
 C-CT--0.101497  -1   47.33600000   50.59000000   36.02300000 L
 H-H1-0.136951   -1   48.07100000   51.26300000   35.58600000 L
 C-CT--0.144399  -1   47.99600000   49.79100000   37.17000000 L
 H-HC-0.052533   -1   48.31300000   50.49100000   37.94500000 L
 H-HC-0.052533   -1   47.23800000   49.13700000   37.60700000 L
 C-CT-0.191982   -1   49.20900000   48.92600000   36.76700000 L
 H-HC-0.000825   -1   48.90600000   48.21000000   36.00200000 L
 C-CT--0.123036  -1   50.36500000   49.76900000   36.21000000 L
 H-HC-0.022376   -1   50.06700000   50.25700000   35.28200000 L
 H-HC-0.022376   -1   50.65600000   50.52600000   36.93900000 L
 H-HC-0.022376   -1   51.22200000   49.12800000   35.99700000 L
 C-CT--0.123036  -1   49.70300000   48.13800000   37.99000000 L
 H-HC-0.022376   -1   48.89700000   47.51600000   38.38000000 L
 H-HC-0.022376   -1   50.53400000   47.49100000   37.70400000 L
 H-HC-0.022376   -1   50.03600000   48.82200000   38.77200000 L
 C-C-0.573471    -1   46.83300000   49.66100000   34.90800000 L
 O-O--0.557847   -1   45.89200000   48.89300000   35.09200000 L
 N-N--0.558201   -1   47.51700000   49.71600000   33.76400000 L
 H-H-0.319676    -1   48.19300000   50.46900000   33.68400000 L
 C-CT-0.007225   -1   47.25000000   48.95300000   32.54000000 L
 H-H1-0.082375   -1   46.41700000   49.43600000   32.03100000 L
 C-CT--0.047555  -1   48.47200000   49.10200000   31.62400000 L
 H-HC--0.014836  -1   48.51800000   50.12400000   31.26400000 L
 H-HC--0.014836  -1   49.37900000   48.90700000   32.19700000 L
 C-C-0.745168    -1   48.43500000   48.17400000   30.41400000 L
 O-O2--0.730385  -1   49.47800000   47.54800000   30.12500000 L
 O-O2--0.730385  -1   47.37600000   48.09500000   29.74800000 L
 C-C-0.443199    -1   46.92100000   47.45700000   32.75700000 L
 O-O--0.501445   -1   47.80900000   46.70100000   33.16700000 L
 N-N--0.088116   -1   45.70800000   46.99400000   32.38800000 L
 C-CT--0.011906  -1   44.55400000   47.81800000   32.04400000 L
 H-H1-0.043951   -1   44.70000000   48.26200000   31.05900000 L
 H-H1-0.043950   -1   44.39300000   48.60100000   32.78700000 L
 C-CT-0.013059   -1   43.35400000   46.87600000   32.01200000 L
 H-HC-0.019574   -1   42.60600000   47.20100000   31.28900000 L
 H-HC-0.019574   -1   42.91900000   46.80300000   33.00900000 L
 C-CT--0.003351  -1   43.99000000   45.54200000   31.62800000 L
 H-HC-0.019352   -1   44.16900000   45.51400000   30.55400000 L
 H-HC-0.019352   -1   43.37700000   44.69600000   31.93300000 L
 C-CT--0.034577  -1   45.33000000   45.58100000   32.36400000 L
 H-H1-0.059977   -1   45.15900000   45.27000000   33.39400000 L
 C-C-0.333720    -1   46.34700000   44.62100000   31.72500000 L
 O-O--0.434559   -1   46.54700000   43.53400000   32.26000000 L
 N-N--0.423392   -1   47.02700000   44.99500000   30.63000000 L
 H-H-0.306811    -1   46.85200000   45.90900000   30.22400000 L
 C-CT-0.031633   -1   48.05000000   44.13600000   30.00400000 L
 H-H1-0.065100   -1   47.62300000   43.14000000   29.87500000 L
 C-CT-0.074772   -1   48.38300000   44.68700000   28.60100000 L
 H-HC--0.003535  -1   47.45400000   44.81800000   28.04400000 L
 H-HC--0.003535  -1   48.85200000   45.66000000   28.70100000 L
 C-CT--0.033909  -1   49.30800000   43.77300000   27.78700000 L
 H-HC--0.004135  -1   50.23000000   43.60700000   28.34300000 L
 H-HC--0.004135  -1   48.81500000   42.81000000   27.64500000 L
 C-C-0.765188    -1   49.69100000   44.35000000   26.42100000 L
 O-O2--0.824035  -1   49.89800000   45.58000000   26.28900000 L
 O-O2--0.824035  -1   49.93100000   43.54900000   25.48500000 L
 C-C-0.469735    -1   49.30900000   43.98200000   30.89200000 L
 O-O--0.592528   -1   49.93000000   42.91500000   30.92200000 L
 N-N--0.245382   -1   49.65200000   45.03000000   31.65500000 L
 H-H-0.255339    -1   49.09100000   45.86600000   31.54400000 L
 C-CT--0.271249  -1   50.74400000   45.07900000   32.64700000 L
 H-H1-0.163757   -1   51.60000000   44.52700000   32.25900000 L
 C-CT-0.237868   -1   51.16500000   46.54200000   32.86000000 L
 H-H1-0.044688   -1   50.31300000   47.12400000   33.21500000 L
 C-CT--0.176489  -1   52.31000000   46.72100000   33.85200000 L
 H-HC-0.060019   -1   52.65200000   47.75600000   33.84400000 L
 H-HC-0.060019   -1   51.96500000   46.48700000   34.85900000 L
 H-HC-0.060019   -1   53.13800000   46.06500000   33.58800000 L
 O-OH--0.601931  -1   51.61000000   47.06300000   31.62500000 L
 H-HO-0.405484   -1   50.82300000   47.18100000   31.04900000 L
 C-C-0.559878    -1   50.35500000   44.41500000   33.97200000 L
 O-O--0.552020   -1   51.20800000   43.80400000   34.61500000 L
 N-N--0.450087   -1   49.08100000   44.48700000   34.36000000 L
 H-H-0.440048    -1   48.47500000   45.11000000   33.83000000 L
 C-CT--0.051858  -1   48.49000000   43.72100000   35.47600000 L
 H-H1--0.026204  -1   49.08100000   43.91600000   36.37300000 L
 C-CT-0.395217   -1   47.03600000   44.18500000   35.74300000 L
 H-HC--0.115672  -1   46.51600000   44.23800000   34.79000000 L
 C-CT--0.090132  -1   46.23100000   43.23600000   36.64600000 L
 H-HC--0.008985  -1   46.77700000   43.03900000   37.56700000 L
 H-HC--0.008985  -1   45.26500000   43.67900000   36.89000000 L
 H-HC--0.008985  -1   46.04600000   42.29700000   36.12500000 L
 C-CT--0.090132  -1   47.01300000   45.59300000   36.36300000 L
 H-HC--0.008985  -1   47.49000000   45.58100000   37.34100000 L
 H-HC--0.008985  -1   47.54100000   46.29700000   35.72400000 L
 H-HC--0.008985  -1   45.98300000   45.93400000   36.47200000 L
 C-C-0.447359    -1   48.54100000   42.20900000   35.19100000 L
 O-O--0.404629   -1   48.95500000   41.43100000   36.04800000 L
 N-N--0.558201   -1   48.17900000   41.78900000   33.97400000 L
 H-H-0.319676    -1   47.78900000   42.46400000   33.32200000 L
 C-CT-0.007225   -1   48.30600000   40.40300000   33.51100000 L
 H-H1-0.082375   -1   47.73200000   39.75700000   34.17600000 L
 C-CT--0.047555  -1   47.68200000   40.32200000   32.10600000 L
 H-HC--0.014836  -1   46.61700000   40.54800000   32.17800000 L
 H-HC--0.014836  -1   48.13900000   41.07500000   31.46400000 L
 C-C-0.745168    -1   47.85600000   38.95400000   31.45400000 L
 O-O2--0.730385  -1   48.79200000   38.79300000   30.63600000 L
 O-O2--0.730385  -1   47.08900000   38.01800000   31.78100000 L
 C-C-0.443199    -1   49.77000000   39.90900000   33.53100000 L
 O-O--0.501445   -1   50.03400000   38.76100000   33.89900000 L
 N-N--0.558201   -1   50.71700000   40.78900000   33.18900000 L
 H-H-0.319676    -1   50.40900000   41.70900000   32.89500000 L
 C-CT-0.007225   -1   52.16100000   40.51900000   33.19400000 L
 H-H1-0.082375   -1   52.33600000   39.60000000   32.63300000 L
 C-CT--0.047555  -1   52.87400000   41.67800000   32.47700000 L
 H-HC--0.014836  -1   52.35400000   41.91100000   31.54900000 L
 H-HC--0.014836  -1   52.85000000   42.56800000   33.10500000 L
 C-C-0.745168    -1   54.31900000   41.34800000   32.13000000 L
 O-O2--0.730385  -1   55.23800000   42.05300000   32.61700000 L
 O-O2--0.730385  -1   54.53500000   40.41700000   31.31700000 L
 C-C-0.443199    -1   52.74300000   40.33100000   34.60800000 L
 O-O--0.501445   -1   53.69200000   39.56100000   34.78700000 L
 N-N--0.404773   -1   52.16500000   41.01000000   35.60900000 L
 H-H-0.294276    -1   51.39700000   41.63000000   35.36700000 L
 C-CT--0.027733  -1   52.52800000   40.87700000   37.02100000 L
 H-H1-0.120802   -1   53.60900000   40.98700000   37.12000000 L
 C-CT--0.229951  -1   51.84200000   42.00200000   37.81300000 L
 H-HC-0.077428   -1   50.76000000   41.94700000   37.69900000 L
 H-HC-0.077428   -1   52.07000000   41.90300000   38.87300000 L
 H-HC-0.077428   -1   52.18400000   42.97500000   37.46100000 L
 C-C-0.570224    -1   52.15700000   39.49700000   37.59000000 L