%chk=mmp2_partial_TS_01.chk
%mem=3000MB
%nprocshared=4
#p opt=modredundant oniom(pm3:amber=hardfirst) nosymm
geom=connectivity iop(2/15=3) test

MMP2 reduced model for TS

-2 1 1 1 1 1
 N-N3-0.096600   -1   41.50700000   23.20200000   52.27500000 L
 H-H-0.216500    -1   40.56000000   22.84100000   52.24900000 L
 H-H-0.216500    -1   41.68700000   23.65300000   51.38400000 L
 H-H-0.216500    -1   41.55900000   23.90200000   53.00600000 L
 C-CT--0.001500  -1   42.49000000   22.11500000   52.51100000 L
 H-HP-0.118000   -1   42.37700000   21.79300000   53.54600000 L
 C-CT-0.021200   -1   42.20700000   20.89700000   51.60500000 L
 H-HC-0.028300   -1   42.87500000   20.08700000   51.89700000 L
 H-HC-0.028300   -1   41.18600000   20.56200000   51.79000000 L
 C-CT--0.004800  -1   42.38400000   21.15100000   50.09600000 L
 H-HC-0.012100   -1   41.67600000   21.90600000   49.76200000 L
 H-HC-0.012100   -1   43.39200000   21.52000000   49.91600000 L
 C-CT--0.060800  -1   42.18000000   19.88600000   49.24900000 L
 H-HC-0.063300   -1   42.58400000   20.06500000   48.25000000 L
 H-HC-0.063300   -1   42.73400000   19.06400000   49.69800000 L
 C-CT--0.018100  -1   40.69800000   19.51500000   49.12100000 L
 H-HP-0.117100   -1   40.24800000   19.46200000   50.11600000 L
 H-HP-0.117100   -1   40.19000000   20.30900000   48.56500000 L
 N-N3--0.376400  -1   40.51800000   18.22000000   48.42600000 L
 H-H-0.338200    -1   40.88300000   17.44700000   48.97900000 L
 H-H-0.338200    -1   39.53400000   18.04300000   48.24600000 L
 H-H-0.338200    -1   41.00800000   18.20100000   47.53000000 L
 C-C-0.721400    -1   43.92100000   22.64800000   52.36200000 L
 O-O--0.601300   -1   44.09000000   23.60700000   51.61200000 L
 N-N--0.088116   -1   44.93600000   22.07600000   53.04300000 L
 C-CT--0.011906  -1   44.82600000   20.97300000   53.99100000 L
 H-H1-0.043951   -1   44.42300000   20.07500000   53.52400000 L
 H-H1-0.043950   -1   44.19800000   21.27800000   54.83100000 L
 C-CT-0.013059   -1   46.24700000   20.70700000   54.48900000 L
 H-HC-0.019574   -1   46.75000000   20.01000000   53.81900000 L
 H-HC-0.019574   -1   46.25400000   20.33300000   55.51300000 L
 C-CT--0.003351  -1   46.91000000   22.07600000   54.37900000 L
 H-HC-0.019352   -1   47.99600000   21.99800000   54.30500000 L
 H-HC-0.019352   -1   46.63400000   22.68200000   55.24400000 L
 C-CT--0.034577  -1   46.27500000   22.67000000   53.11800000 L
 H-H1-0.059977   -1   46.18800000   23.74900000   53.25100000 L
 C-C-0.333720    -1   47.15500000   22.43200000   51.88300000 L
 O-O--0.434559   -1   48.16200000   23.11600000   51.73600000 L
 N-N--0.435875   -1   46.79700000   21.50300000   50.98700000 L
 H-H-0.251302    -1   45.96900000   20.94900000   51.15000000 L
 C-CT--0.038773  -1   47.51900000   21.25200000   49.72900000 L
 H-H1-0.129478   -1   48.07200000   22.15000000   49.45100000 L
 C-CT--0.108273  -1   48.51800000   20.08200000   49.89200000 L
 H-HC-0.045214   -1   47.95700000   19.15400000   50.01900000 L
 H-HC-0.045214   -1   49.10500000   20.00000000   48.97600000 L
 C-CT-0.033341   -1   49.48000000   20.23400000   51.08300000 L
 H-HC-0.010208   -1   49.97300000   21.20400000   51.02200000 L
 H-HC-0.010208   -1   48.89800000   20.19000000   52.00400000 L
 C-CT--0.047841  -1   50.55700000   19.13800000   51.13100000 L
 H-HC-0.070715   -1   50.14300000   18.19400000   50.77500000 L
 H-HC-0.070715   -1   51.38600000   19.41900000   50.48000000 L
 C-CT--0.069974  -1   51.03900000   18.96200000   52.57900000 L
 H-HP-0.119522   -1   51.41900000   19.91500000   52.95800000 L
 H-HP-0.119522   -1   50.18300000   18.67900000   53.19800000 L
 N-N3--0.250358  -1   52.08300000   17.92100000   52.71200000 L
 H-H-0.294561    -1   52.33700000   17.79000000   53.69000000 L
 H-H-0.294561    -1   51.76400000   17.01600000   52.37100000 L
 H-H-0.294561    -1   52.91600000   18.15500000   52.19600000 L
 C-C-0.725129    -1   46.52500000   20.94100000   48.59800000 L
 O-O--0.563157   -1   45.47900000   20.33600000   48.84400000 L
 N-N--0.427579    0   46.83690300   21.32648400   47.35757800 L
 H-H-0.241716     0   47.70963900   21.81478900   47.21585500 L
 C-CT--0.020082   0   46.03751400   20.97098800   46.17321500 L
 H-H1-0.106629    0   45.00184700   21.27085000   46.34343200 L
 C-CT--0.098364   0   46.56948600   21.74794300   44.95787600 L
 H-HC-0.065424    0   47.62432500   21.51226800   44.81096100 L
 H-HC-0.065424    0   46.03097200   21.41706700   44.06838700 L
 C-C*--0.099797   0   46.41857200   23.23479700   45.05353700 L
 C-CW--0.174053   0   47.35941800   24.09111600   45.51267300 L
 H-H4-0.170633    0   48.34978200   23.81352500   45.85061400 L
 N-NA--0.298433   0   46.84061200   25.37017400   45.52992000 L
 H-H-0.322375     0   47.30136000   26.18037700   45.94116100 L
 C-CN-0.141523    0   45.54356500   25.40587800   45.07535600 L
 C-CA--0.210701   0   44.60683200   26.44066200   44.94595700 L
 H-HA-0.125512    0   44.88320200   27.44496900   45.22975900 L
 C-CA--0.133022   0   43.32963400   26.14746700   44.43926300 L
 H-HA-0.119467    0   42.59931300   26.93454500   44.31170500 L
 C-CA--0.164054   0   43.01631300   24.82781400   44.06612500 L
 H-HA-0.119250    0   42.05052100   24.60603400   43.63391600 L
 C-CA--0.153992   0   43.96276900   23.79656100   44.21735100 L
 H-HA-0.123084    0   43.71563200   22.79224200   43.91303500 L
 C-CB-0.089641    0   45.24922900   24.05446000   44.73679100 L
 C-C-0.584129     0   46.04560900   19.45108200   45.90985300 L
 O-O--0.494730    0   47.04898300   18.78739700   46.15803300 L
 N-N--0.558201   -1   44.95700000   18.90400000   45.36600000 L
 H-H-0.319676    -1   44.18100000   19.53000000   45.15400000 L
 C-CT-0.007225   -1   44.81400000   17.48000000   44.99900000 L
 H-H1-0.082375   -1   45.10900000   16.86100000   45.84700000 L
 C-CT--0.047555  -1   43.33700000   17.17900000   44.68600000 L
 H-HC--0.014836  -1   43.03300000   17.76500000   43.81600000 L
 H-HC--0.014836  -1   43.23900000   16.12400000   44.42800000 L
 C-C-0.745168    -1   42.39400000   17.47600000   45.85600000 L
 O-O2--0.730385  -1   42.59500000   16.91800000   46.96000000 L
 O-O2--0.730385  -1   41.44300000   18.27600000   45.67600000 L
 C-C-0.443199    -1   45.69000000   17.07100000   43.79300000 L
 O-O--0.501445   -1   45.92200000   15.88400000   43.55000000 L
 N-N--0.451047   -1   47.71000000   23.80600000   37.85900000 L
 H-H-0.328831    -1   48.51400000   24.19100000   37.36200000 L
 C-CT--0.101874  -1   46.75000000   24.78500000   38.40300000 L
 H-H1-0.174193   -1   45.87300000   24.27800000   38.80900000 L
 C-CT-0.062238   -1   47.44500000   25.57500000   39.54500000 L
 H-HC-0.061662   -1   48.31300000   26.06300000   39.10400000 L
 C-CT--0.129989  -1   46.55000000   26.68200000   40.13100000 L
 H-HC-0.030227   -1   47.05000000   27.15800000   40.97500000 L
 H-HC-0.030227   -1   46.35100000   27.45100000   39.38500000 L
 H-HC-0.030227   -1   45.60700000   26.26000000   40.47500000 L
 C-CT-0.022230   -1   47.98500000   24.68600000   40.69500000 L
 H-HC-0.011551   -1   48.70300000   23.97000000   40.29600000 L
 H-HC-0.011551   -1   48.53600000   25.31800000   41.39200000 L
 C-CT--0.101251  -1   46.92500000   23.91500000   41.49500000 L
 H-HC-0.023792   -1   46.33200000   23.28000000   40.84100000 L
 H-HC-0.023792   -1   47.42400000   23.28600000   42.23300000 L
 H-HC-0.023792   -1   46.26700000   24.60900000   42.01800000 L
 C-C-0.569383    -1   46.26100000   25.71200000   37.27600000 L
 O-O--0.619535   -1   47.01900000   26.01200000   36.34700000 L
 N-N--0.487560   -1   44.08400000   29.48400000   36.22900000 L
 H-H-0.263521    -1   44.42300000   29.38200000   35.27700000 L
 C-CT-0.009614   -1   43.67900000   30.82000000   36.67900000 L
 H-H1-0.095501   -1   43.03400000   30.68900000   37.54200000 L
 C-CT--0.051853  -1   44.90300000   31.61600000   37.15800000 L
 H-HC-0.019145   -1   44.54900000   32.46500000   37.74400000 L
 H-HC-0.019145   -1   45.48300000   30.99200000   37.83900000 L
 C-CA-0.112601   -1   45.83100000   32.14600000   36.08000000 L
 C-CA--0.183461  -1   46.87700000   31.34100000   35.58700000 L
 H-HA-0.132715   -1   46.98100000   30.32300000   35.93300000 L
 C-CA--0.181823  -1   47.80900000   31.87300000   34.67500000 L
 H-HA-0.137303   -1   48.63400000   31.27300000   34.32000000 L
 C-C-0.206277    -1   47.69800000   33.21600000   34.25600000 L
 O-OH--0.421233  -1   48.64200000   33.75000000   33.43700000 L
 H-HO-0.329691   -1   48.54800000   34.71100000   33.34800000 L
 C-CA--0.181823  -1   46.63100000   34.01500000   34.72600000 L
 H-HA-0.137303   -1   46.54700000   35.04300000   34.40700000 L
 C-CA--0.183461  -1   45.70000000   33.47700000   35.63500000 L
 H-HA-0.132715   -1   44.90500000   34.10000000   36.01700000 L
 C-C-0.622290    -1   42.84800000   31.58500000   35.64000000 L
 O-O--0.526607   -1   42.88100000   31.27600000   34.44700000 L
 N-N--0.451047   -1   40.97100000   35.82900000   34.97700000 L
 H-H-0.328831    -1   41.07200000   35.63900000   33.98100000 L
 C-CT--0.101874  -1   40.83900000   37.23300000   35.42500000 L
 H-H1-0.174193   -1   40.86200000   37.26300000   36.51400000 L
 C-CT-0.062238   -1   42.01700000   38.10800000   34.91500000 L
 H-HC-0.061662   -1   41.88600000   38.26900000   33.84300000 L
 C-CT--0.129989  -1   41.95700000   39.47600000   35.62800000 L
 H-HC-0.030227   -1   42.75900000   40.12500000   35.28300000 L
 H-HC-0.030227   -1   41.01900000   39.98300000   35.40700000 L
 H-HC-0.030227   -1   42.05000000   39.34600000   36.70700000 L
 C-CT-0.022230   -1   43.40100000   37.44100000   35.13100000 L
 H-HC-0.011551   -1   43.56400000   37.27600000   36.19500000 L
 H-HC-0.011551   -1   43.41600000   36.47100000   34.63400000 L
 C-CT--0.101251  -1   44.59200000   38.23300000   34.57000000 L
 H-HC-0.023792   -1   45.49300000   37.62100000   34.63300000 L
 H-HC-0.023792   -1   44.41200000   38.48900000   33.52600000 L
 H-HC-0.023792   -1   44.75600000   39.14300000   35.14700000 L
 C-C-0.569383    -1   39.48000000   37.80300000   34.99300000 L
 O-O--0.619535   -1   39.09200000   37.65700000   33.83500000 L
 N-N--0.450087   -1   49.08100000   44.48700000   34.36000000 L
 H-H-0.440048    -1   48.47500000   45.11000000   33.83000000 L
 C-CT--0.051858  -1   48.49000000   43.72100000   35.47600000 L
 H-H1--0.026204  -1   49.08100000   43.91600000   36.37300000 L
 C-CT-0.395217   -1   47.03600000   44.18500000   35.74300000 L
 H-HC--0.115672  -1   46.51600000   44.23800000   34.79000000 L
 C-CT--0.090132  -1   46.23100000   43.23600000   36.64600000 L
 H-HC--0.008985  -1   46.77700000   43.03900000   37.56700000 L
 H-HC--0.008985  -1   45.26500000   43.67900000   36.89000000 L
 H-HC--0.008985  -1   46.04600000   42.29700000   36.12500000 L
 C-CT--0.090132  -1   47.01300000   45.59300000   36.36300000 L
 H-HC--0.008985  -1   47.49000000   45.58100000   37.34100000 L
 H-HC--0.008985  -1   47.54100000   46.29700000   35.72400000 L
 H-HC--0.008985  -1   45.98300000   45.93400000   36.47200000 L
 C-C-0.447359    -1   48.54100000   42.20900000   35.19100000 L
 O-O--0.404629   -1   48.95500000   41.43100000   36.04800000 L
 N-N--0.404773   -1   52.16500000   41.01000000   35.60900000 L
 H-H-0.294276    -1   51.39700000   41.63000000   35.36700000 L
 C-CT--0.027733  -1   52.52800000   40.87700000   37.02100000 L
 H-H1-0.120802   -1   53.60900000   40.98700000   37.12000000 L
 C-CT--0.229951  -1   51.84200000   42.00200000   37.81300000 L
 H-HC-0.077428   -1   50.76000000   41.94700000   37.69900000 L
 H-HC-0.077428   -1   52.07000000   41.90300000   38.87300000 L
 H-HC-0.077428   -1   52.18400000   42.97500000   37.46100000 L
 C-C-0.570224    -1   52.15700000   39.49700000   37.59000000 L
 O-O--0.555129   -1   52.97500000   38.86800000   38.26600000 L
 N-N--0.371290    0   50.93790600   39.00915800   37.33432600 L
 H-H-0.234053     0   50.27094300   39.60955500   36.86575400 L
 C-CT--0.030057   0   50.51427300   37.67398500   37.77249900 L
 H-H1-0.102448    0   50.67913200   37.61106200   38.84940300 L
 C-CT--0.098720   0   49.01072500   37.47313800   37.52649800 L
 H-HC-0.060989    0   48.80625900   37.56046400   36.45880500 L
 H-HC-0.060989    0   48.74275300   36.45985500   37.83182200 L
 C-CA-0.021313    0   48.12010500   38.43666800   38.29836500 L
 C-CA--0.083109   0   48.25870500   38.57086000   39.69577900 L
 H-HA-0.098466    0   48.98248800   37.98326800   40.24101700 L
 C-CA--0.156974   0   47.45073600   39.47493900   40.40636300 L
 H-HA-0.123731    0   47.56251700   39.57775200   41.47632700 L
 C-CA--0.099824   0   46.48673500   40.24035000   39.73045300 L
 H-HA-0.114679    0   45.85929300   40.92779800   40.28336800 L
 C-CA--0.156974   0   46.32951400   40.09541400   38.34144800 L
 H-HA-0.123731    0   45.57051800   40.66892800   37.82987100 L
 C-CA--0.083109   0   47.14473700   39.19948400   37.62606400 L
 H-HA-0.098466    0   47.01246500   39.10336900   36.55893800 L
 C-C-0.547987     0   51.37894100   36.55892600   37.16139000 L
 O-O--0.506795    0   51.75765700   35.63621800   37.87525700 L
 N-N--0.404773   -1   51.77700000   36.66400000   35.88200000 L
 H-H-0.294276    -1   51.46300000   37.46100000   35.34100000 L
 C-CT--0.027733  -1   52.70200000   35.71200000   35.25800000 L
 H-H1-0.120802   -1   52.24300000   34.72100000   35.26500000 L
 C-CT--0.229951  -1   52.91800000   36.12800000   33.79600000 L
 H-HC-0.077428   -1   53.57600000   35.40900000   33.30600000 L
 H-HC-0.077428   -1   51.96300000   36.14400000   33.26900000 L
 H-HC-0.077428   -1   53.37400000   37.11700000   33.74300000 L
 C-C-0.570224    -1   54.03000000   35.59100000   36.03500000 L
 O-O--0.555129   -1   54.48400000   34.48000000   36.31300000 L
 N-N--0.300879   -1   54.61000000   36.72000000   36.46900000 L
 H-H-0.233693    -1   54.17900000   37.60200000   36.22600000 L
 C-CT--0.131381  -1   55.81500000   36.73600000   37.31500000 L
 H-H1-0.053266   -1   56.61100000   36.20100000   36.79400000 L
 C-CT-0.036707   -1   56.28600000   38.17900000   37.55500000 L
 H-HC-0.028012   -1   55.46100000   38.77700000   37.93600000 L
 H-HC-0.028012   -1   57.07100000   38.17300000   38.31100000 L
 C-CT-0.012454   -1   56.83400000   38.82200000   36.27400000 L
 H-HC-0.002964   -1   57.77000000   38.34200000   35.99300000 L
 H-HC-0.002964   -1   56.12100000   38.67400000   35.46600000 L
 C-CT-0.126329   -1   57.05500000   40.32900000   36.42600000 L
 H-H1-0.068148   -1   57.35600000   40.72900000   35.45800000 L
 H-H1-0.068148   -1   56.11000000   40.79500000   36.71200000 L
 N-N2--0.464890  -1   58.09500000   40.66000000   37.41100000 L
 H-H-0.326274    -1   58.68900000   39.89700000   37.73200000 L
 C-CA-0.565543   -1   58.41800000   41.88700000   37.79800000 L
 N-N2--0.685774  -1   57.76400000   42.93900000   37.35300000 L
 H-H-0.391052    -1   57.04500000   42.82100000   36.64800000 L
 H-H-0.391052    -1   58.06200000   43.87800000   37.59100000 L
 N-N2--0.685774  -1   59.41500000   42.07000000   38.63300000 L
 H-H-0.391052    -1   59.97900000   41.28800000   38.95200000 L
 H-H-0.391052    -1   59.68700000   43.00600000   38.91800000 L
 C-C-0.730308    -1   55.58300000   36.02400000   38.65400000 L
 O-O--0.578332   -1   56.37500000   35.16500000   39.04500000 L
 N-N--0.404773   -1   54.47200000   36.31300000   39.33700000 L
 H-H-0.294276    -1   53.85000000   37.02400000   38.97000000 L
 C-CT--0.027733  -1   54.12200000   35.65300000   40.59800000 L
 H-H1-0.120802   -1   54.94200000   35.80800000   41.30400000 L
 C-CT--0.229951  -1   52.87600000   36.33800000   41.17000000 L
 H-HC-0.077428   -1   52.02800000   36.20000000   40.49900000 L
 H-HC-0.077428   -1   52.63800000   35.91200000   42.14500000 L
 H-HC-0.077428   -1   53.06200000   37.40600000   41.29500000 L
 C-C-0.570224    -1   53.96600000   34.12100000   40.45400000 L
 O-O--0.555129   -1   54.45600000   33.38100000   41.30700000 L
 N-N--0.371290   -1   53.37800000   33.63000000   39.35400000 L
 H-H-0.234053    -1   52.94400000   34.27600000   38.70300000 L
 C-CT--0.030057  -1   53.33200000   32.19500000   39.04400000 L
 H-H1-0.102448   -1   52.98700000   31.66500000   39.93300000 L
 C-CT--0.098720  -1   52.33600000   31.93200000   37.90200000 L
 H-HC-0.060989   -1   52.60800000   32.54700000   37.04200000 L
 H-HC-0.060989   -1   52.43200000   30.89100000   37.59200000 L
 C-CA-0.021313   -1   50.87600000   32.16600000   38.25400000 L
 C-CA--0.083109  -1   50.31000000   31.54100000   39.38300000 L
 H-HA-0.098466   -1   50.90900000   30.89000000   40.00400000 L
 C-CA--0.156974  -1   48.96100000   31.75500000   39.71200000 L
 H-HA-0.123731   -1   48.54400000   31.28900000   40.59100000 L
 C-CA--0.099824  -1   48.16500000   32.59300000   38.91300000 L
 H-HA-0.114679   -1   47.13000000   32.76700000   39.17300000 L
 C-CA--0.156974  -1   48.72400000   33.21500000   37.78400000 L
 H-HA-0.123731   -1   48.11700000   33.86300000   37.16900000 L
 C-CA--0.083109  -1   50.07100000   32.99200000   37.44700000 L
 H-HA-0.098466   -1   50.48600000   33.46700000   36.57000000 L
 C-C-0.547987    -1   54.71100000   31.60400000   38.70900000 L
 O-O--0.506795   -1   55.00400000   30.48000000   39.11900000 L
 N-N--0.387353   -1   55.57900000   32.33900000   38.00400000 L
 H-H-0.300605    -1   55.25900000   33.22400000   37.62200000 L
 C-CT-0.037470   -1   56.96600000   31.92600000   37.75100000 L
 H-H1-0.152255   -1   56.97900000   30.93500000   37.29300000 L
 C-CT--0.032112  -1   57.64100000   32.90900000   36.78300000 L
 H-HC-0.030995   -1   57.46800000   33.92800000   37.12400000 L
 H-HC-0.030995   -1   58.71700000   32.73600000   36.79400000 L
 C-CT--0.020264  -1   57.15300000   32.77000000   35.33200000 L
 H-HC-0.030791   -1   57.54400000   31.84900000   34.89900000 L
 H-HC-0.030791   -1   56.06600000   32.71300000   35.31200000 L
 C-C-0.667812    -1   57.60100000   33.95500000   34.47600000 L
 O-O--0.628483   -1   58.64500000   34.55900000   34.68200000 L
 N-N--0.883393   -1   56.83800000   34.36600000   33.49400000 L
 H-H-0.408312    -1   57.13400000   35.20700000   33.00900000 L
 H-H-0.408312    -1   55.99000000   33.86000000   33.26200000 L
 C-C-0.418577    -1   57.77400000   31.81600000   39.05400000 L
 O-O--0.565310   -1   58.42900000   30.79700000   39.26600000 L
 N-N--0.450087   -1   57.70300000   32.80600000   39.95100000 L
 H-H-0.440048    -1   57.18500000   33.65100000   39.70200000 L
 C-CT--0.051858  -1   58.41400000   32.77300000   41.24800000 L
 H-H1--0.026204  -1   59.48200000   32.70900000   41.03100000 L
 C-CT-0.395217   -1   58.17900000   34.07000000   42.06200000 L
 H-HC--0.115672  -1   57.10900000   34.28800000   42.06900000 L
 C-CT--0.090132  -1   58.66000000   33.98000000   43.52300000 L
 H-HC--0.008985  -1   58.07000000   33.24700000   44.07500000 L
 H-HC--0.008985  -1   59.71200000   33.69300000   43.55600000 L
 H-HC--0.008985  -1   58.53800000   34.94500000   44.01500000 L
 C-CT--0.090132  -1   58.90500000   35.25400000   41.39600000 L
 H-HC--0.008985  -1   59.98400000   35.09400000   41.42300000 L
 H-HC--0.008985  -1   58.59600000   35.36100000   40.35700000 L
 H-HC--0.008985  -1   58.66900000   36.17800000   41.92300000 L
 C-C-0.447359    -1   58.03700000   31.52600000   42.06400000 L
 O-O--0.404629   -1   58.92200000   30.80600000   42.52500000 L
 N-N--0.427579    0   56.73872100   31.23505600   42.21822300 L
 H-H-0.241716     0   56.03778300   31.87429400   41.86323500 L
 C-CT--0.020082   0   56.28369200   30.00990000   42.88537200 L
 H-H1-0.106629    0   56.84552100   29.91982500   43.81508100 L
 C-CT--0.098364   0   54.80186400   30.14824300   43.26837900 L
 H-HC-0.065424    0   54.23147900   30.50262200   42.40808400 L
 H-HC-0.065424    0   54.41837000   29.16090500   43.53144700 L
 C-C*--0.099797   0   54.55782200   31.04467800   44.45144700 L
 C-CW--0.174053   0   53.80984000   32.17338400   44.46144400 L
 H-H4-0.170633    0   53.28959400   32.56835100   43.59914500 L
 N-NA--0.298433   0   53.82305300   32.73083200   45.73041900 L
 H-H-0.322375     0   53.33499300   33.57407600   46.01884700 L
 C-CN-0.141523    0   54.60816100   31.99837500   46.59219400 L
 C-CA--0.210701   0   54.95213700   32.16484200   47.94070600 L
 H-HA-0.125512    0   54.55015000   32.99641900   48.49910200 L
 C-CA--0.133022   0   55.82362100   31.24439000   48.54545100 L
 H-HA-0.119467    0   56.11334400   31.36854400   49.58013600 L
 C-CA--0.164054   0   56.31570000   30.15821200   47.80113600 L
 H-HA-0.119250    0   56.99112900   29.45454700   48.26430200 L
 C-CA--0.153992   0   55.93940300   29.98434300   46.45567200 L
 H-HA-0.123084    0   56.31847600   29.13780200   45.90352000 L
 C-CB-0.089641    0   55.08776600   30.90862000   45.80856700 L
 C-C-0.584129     0   56.59376700   28.70909000   42.11104100 L
 O-O--0.494730    0   56.75733800   27.66109700   42.73656100 L
 N-N--0.541430   -1   56.73800000   28.74200000   40.78100000 L
 H-H-0.345415    -1   56.72000000   29.65200000   40.33300000 L
 C-CT-0.118140   -1   57.15100000   27.56400000   39.99000000 L
 H-H1-0.142177   -1   56.47100000   26.73400000   40.19000000 L
 C-CT-0.146998   -1   57.10800000   27.84900000   38.47700000 L
 H-H1-0.040081   -1   57.79900000   28.65500000   38.23500000 L
 H-H1-0.040081   -1   57.44300000   26.95700000   37.94600000 L
 O-OH--0.640312  -1   55.80700000   28.18500000   38.01200000 L
 H-HO-0.446255   -1   55.48700000   28.95500000   38.52500000 L
 C-C-0.483424    -1   58.56800000   27.09300000   40.37000000 L
 O-O--0.580829   -1   58.81400000   25.89400000   40.48400000 L
 N-N--0.450087   -1   60.19800000   26.66500000   42.97300000 L
 H-H-0.440048    -1   59.32500000   27.08500000   42.67500000 L
 C-CT--0.051858  -1   60.26800000   26.00400000   44.29300000 L
 H-H1--0.026204  -1   61.20200000   25.44300000   44.33300000 L
 C-CT-0.395217   -1   60.30500000   27.05400000   45.43400000 L
 H-HC--0.115672  -1   60.34300000   26.52800000   46.38800000 L
 C-CT--0.090132  -1   61.57200000   27.92100000   45.35600000 L
 H-HC--0.008985  -1   61.61000000   28.58000000   46.21900000 L
 H-HC--0.008985  -1   62.45900000   27.28500000   45.36000000 L
 H-HC--0.008985  -1   61.57000000   28.53300000   44.45400000 L
 C-CT--0.090132  -1   59.05900000   27.95900000   45.43600000 L
 H-HC--0.008985  -1   58.15800000   27.35500000   45.52100000 L
 H-HC--0.008985  -1   59.09500000   28.63400000   46.29000000 L
 H-HC--0.008985  -1   59.00900000   28.55000000   44.52200000 L
 C-C-0.447359    -1   59.14700000   24.97000000   44.52400000 L
 O-O--0.404629   -1   58.95100000   24.51000000   45.65200000 L
 N-N--0.245382   -1   58.41200000   24.59200000   43.46500000 L
 H-H-0.255339    -1   58.66400000   24.95100000   42.55000000 L
 C-CT--0.271249  -1   57.31500000   23.60600000   43.49900000 L
 H-H1-0.163757   -1   57.45500000   22.94800000   44.35500000 L
 C-CT-0.237868   -1   55.94500000   24.29500000   43.64400000 L
 H-H1-0.044688   -1   55.17000000   23.53400000   43.68000000 L
 C-CT--0.176489  -1   55.78400000   25.14300000   44.90200000 L
 H-HC-0.060019   -1   56.01600000   24.54000000   45.77800000 L
 H-HC-0.060019   -1   56.44900000   26.00400000   44.87200000 L
 H-HC-0.060019   -1   54.75400000   25.49400000   44.97400000 L
 O-OH--0.601931  -1   55.69800000   25.08900000   42.51600000 L
 H-HO-0.405484   -1   56.07600000   25.97100000   42.67600000 L
 C-C-0.559878    -1   57.33200000   22.74200000   42.22800000 L
 O-O--0.552020   -1   57.95800000   23.13500000   41.24000000 L
 N-N--0.355153   -1   54.41300000   22.69400000   40.86100000 L
 H-H-0.262417    -1   54.81100000   23.07800000   41.70800000 L
 C-CT--0.101497  -1   53.17300000   23.29900000   40.37900000 L
 H-H1-0.136951   -1   52.51300000   22.50000000   40.05000000 L
 C-CT--0.144399  -1   52.47600000   24.07600000   41.51600000 L
 H-HC-0.052533   -1   53.12600000   24.89500000   41.82900000 L
 H-HC-0.052533   -1   51.56400000   24.52300000   41.11500000 L
 C-CT-0.191982   -1   52.10300000   23.23400000   42.75700000 L
 H-HC-0.000825   -1   53.01100000   22.81900000   43.19600000 L
 C-CT--0.123036  -1   51.44300000   24.13200000   43.81000000 L
 H-HC-0.022376   -1   50.53500000   24.58500000   43.40800000 L
 H-HC-0.022376   -1   51.18800000   23.54500000   44.69300000 L
 H-HC-0.022376   -1   52.13800000   24.91700000   44.10600000 L
 C-CT--0.123036  -1   51.16400000   22.06800000   42.41300000 L
 H-HC-0.022376   -1   51.68300000   21.35300000   41.77700000 L
 H-HC-0.022376   -1   50.86300000   21.55300000   43.32600000 L
 H-HC-0.022376   -1   50.27400000   22.43600000   41.90100000 L
 C-C-0.573471    -1   53.43600000   24.19600000   39.16600000 L
 O-O--0.557847   -1   54.39200000   24.97100000   39.14700000 L
 N-N--0.371290   -1   51.24500000   26.44200000   35.74700000 L
 H-H-0.234053    -1   52.12100000   26.77400000   35.36000000 L
 C-CT--0.030057  -1   50.11900000   27.38000000   35.72000000 L
 H-H1-0.102448   -1   49.23700000   26.90700000   36.14600000 L
 C-CT--0.098720  -1   50.48100000   28.60600000   36.58100000 L
 H-HC-0.060989   -1   51.31200000   29.13500000   36.10900000 L
 H-HC-0.060989   -1   49.63300000   29.29400000   36.58700000 L
 C-CA-0.021313   -1   50.86200000   28.30000000   38.02000000 L
 C-CA--0.083109  -1   52.20700000   28.06000000   38.36500000 L
 H-HA-0.098466   -1   52.97700000   28.10200000   37.60900000 L
 C-CA--0.156974  -1   52.55400000   27.75400000   39.69300000 L
 H-HA-0.123731   -1   53.58700000   27.55800000   39.94900000 L
 C-CA--0.099824  -1   51.56100000   27.69800000   40.68500000 L
 H-HA-0.114679   -1   51.83000000   27.46400000   41.70600000 L
 C-CA--0.156974  -1   50.21900000   27.95400000   40.34800000 L
 H-HA-0.123731   -1   49.45500000   27.92100000   41.11000000 L
 C-CA--0.083109  -1   49.87100000   28.25700000   39.01900000 L
 H-HA-0.098466   -1   48.84100000   28.46100000   38.76600000 L
 C-C-0.547987    -1   49.79300000   27.83300000   34.29300000 L
 O-O--0.506795   -1   50.69600000   28.08900000   33.49900000 L
 N-N--0.558201   -1   40.78000000   27.31700000   39.35700000 L
 H-H-0.319676    -1   41.29400000   27.01300000   38.53700000 L
 C-CT-0.007225   -1   41.37700000   27.09500000   40.67900000 L
 H-H1-0.082375   -1   40.66600000   26.54800000   41.30100000 L
 C-CT--0.047555  -1   42.65600000   26.25000000   40.58900000 L
 H-HC--0.014836  -1   43.41600000   26.81300000   40.05200000 L
 H-HC--0.014836  -1   43.03300000   26.07900000   41.59500000 L
 C-C-0.745168    -1   42.45700000   24.89800000   39.90400000 L
 O-O2--0.730385  -1   43.09200000   24.69000000   38.84400000 L
 O-O2--0.730385  -1   41.67400000   24.05400000   40.40100000 L
 C-C-0.443199    -1   41.63900000   28.45800000   41.33900000 L
 O-O--0.501445   -1   41.08100000   28.72800000   42.39900000 L
 N-N--0.451047   -1   42.28000000   29.38200000   40.61500000 L
 H-H-0.328831    -1   42.67300000   29.08000000   39.72300000 L
 C-CT--0.101874  -1   42.55900000   30.75900000   41.05000000 L
 H-H1-0.174193   -1   42.20300000   30.89300000   42.07300000 L
 C-CT-0.062238   -1   44.09200000   31.00200000   41.07700000 L
 H-HC-0.061662   -1   44.47900000   30.85500000   40.06800000 L
 C-CT--0.129989  -1   44.40900000   32.45100000   41.50400000 L
 H-HC-0.030227   -1   43.95800000   33.16100000   40.81500000 L
 H-HC-0.030227   -1   44.02300000   32.64500000   42.50300000 L
 H-HC-0.030227   -1   45.48300000   32.63100000   41.49100000 L
 C-CT-0.022230   -1   44.78800000   29.97800000   42.01400000 L
 H-HC-0.011551   -1   44.41200000   30.09900000   43.02800000 L
 H-HC-0.011551   -1   44.54400000   28.96500000   41.69200000 L
 C-CT--0.101251  -1   46.31800000   30.05900000   42.04300000 L
 H-HC-0.023792   -1   46.70800000   29.24000000   42.64800000 L
 H-HC-0.023792   -1   46.70600000   29.96500000   41.02800000 L
 H-HC-0.023792   -1   46.64700000   30.99800000   42.48500000 L
 C-C-0.569383    -1   41.78000000   31.76200000   40.17500000 L
 O-O--0.619535   -1   42.25200000   32.20700000   39.12800000 L
 N-N--0.394918   -1   40.55600000   32.11400000   40.57900000 L
 H-H-0.280537    -1   40.18700000   31.69600000   41.42600000 L
 C-CT--0.087681  -1   39.85500000   33.28300000   40.01500000 L
 H-H1-0.123080   -1   39.95000000   33.27100000   38.92800000 L
 C-CT-0.019227   -1   38.36300000   33.25500000   40.38300000 L
 H-HC-0.048840   -1   38.26000000   33.21100000   41.46500000 L
 H-HC-0.048840   -1   37.89500000   34.18300000   40.05400000 L
 C-CT--0.208167  -1   37.60900000   32.07300000   39.75800000 L
 H-H1-0.124228   -1   38.10200000   31.14500000   40.05200000 L
 H-H1-0.124228   -1   36.60600000   32.05200000   40.18500000 L
 S-S--0.211958   -1   37.45000000   32.09300000   37.95100000 L
 C-CT--0.284698  -1   36.35000000   33.51400000   37.73900000 L
 H-H1-0.128394   -1   36.86200000   34.43100000   38.02800000 L
 H-H1-0.128394   -1   36.04300000   33.59500000   36.69700000 L
 H-H1-0.128394   -1   35.45900000   33.39200000   38.35900000 L
 C-C-0.599684    -1   40.49100000   34.58000000   40.53700000 L
 O-O--0.566424   -1   40.86300000   34.65600000   41.70700000 L
 N-N--0.451047   -1   40.57900000   35.61900000   39.70300000 L
 H-H-0.328831    -1   40.32100000   35.46300000   38.73200000 L
 C-CT--0.101874  -1   41.25200000   36.89200000   40.02000000 L
 H-H1-0.174193   -1   41.45500000   36.92400000   41.08800000 L
 C-CT-0.062238   -1   42.61600000   36.99200000   39.28700000 L
 H-HC-0.061662   -1   42.42700000   36.98700000   38.21500000 L
 C-CT--0.129989  -1   43.31400000   38.31900000   39.64400000 L
 H-HC-0.030227   -1   44.23700000   38.41900000   39.07700000 L