%mem=3000mb
%nproc=4
#p oniom(b3lyp/6-31g(d):amber=hardfirst)=EmbedCharge nosymm geom=connectivity
iop(2/15=3,4/33=2) test sp scf=(tight,xqc)

Gaussian input file for electronic embedding single point calculation of 3-R complex

-11 1 1 1 1 1
 N-N3-0.096600   -1   41.507000     23.202000     52.275000    L
 H-H-0.216500    -1   40.560000     22.841000     52.249000    L
 H-H-0.216500    -1   41.687000     23.653000     51.384000    L
 H-H-0.216500    -1   41.559000     23.902000     53.006000    L
 C-CT--0.001500  -1   42.490000     22.115000     52.511000    L
 H-HP-0.118000   -1   42.377000     21.793000     53.546000    L
 C-CT-0.021200   -1   42.207000     20.897000     51.605000    L
 H-HC-0.028300   -1   42.875000     20.087000     51.897000    L
 H-HC-0.028300   -1   41.186000     20.562000     51.790000    L
 C-CT--0.004800  -1   42.384000     21.151000     50.096000    L
 H-HC-0.012100   -1   41.676000     21.906000     49.762000    L
 H-HC-0.012100   -1   43.392000     21.520000     49.916000    L
 C-CT--0.060800  -1   42.180000     19.886000     49.249000    L
 H-HC-0.063300   -1   42.584000     20.065000     48.250000    L
 H-HC-0.063300   -1   42.734000     19.064000     49.698000    L
 C-CT--0.018100  -1   40.698000     19.515000     49.121000    L
 H-HP-0.117100   -1   40.248000     19.462000     50.116000    L
 H-HP-0.117100   -1   40.190000     20.309000     48.565000    L
 N-N3--0.376400  -1   40.518000     18.220000     48.426000    L
 H-H-0.338200    -1   40.883000     17.447000     48.979000    L
 H-H-0.338200    -1   39.534000     18.043000     48.246000    L
 H-H-0.338200    -1   41.008000     18.201000     47.530000    L
 C-C-0.721400    -1   43.921000     22.648000     52.362000    L
 O-O--0.601300   -1   44.090000     23.607000     51.612000    L
 N-N--0.088116   -1   44.936000     22.076000     53.043000    L
 C-CT--0.011906  -1   44.826000     20.973000     53.991000    L
 H-H1-0.043951   -1   44.423000     20.075000     53.524000    L
 H-H1-0.043950   -1   44.198000     21.278000     54.831000    L
 C-CT-0.013059   -1   46.247000     20.707000     54.489000    L
 H-HC-0.019574   -1   46.750000     20.010000     53.819000    L
 H-HC-0.019574   -1   46.254000     20.333000     55.513000    L
 C-CT--0.003351  -1   46.910000     22.076000     54.379000    L
 H-HC-0.019352   -1   47.996000     21.998000     54.305000    L
 H-HC-0.019352   -1   46.634000     22.682000     55.244000    L
 C-CT--0.034577  -1   46.275000     22.670000     53.118000    L
 H-H1-0.059977   -1   46.188000     23.749000     53.251000    L
 C-C-0.333720    -1   47.155000     22.432000     51.883000    L
 O-O--0.434559   -1   48.162000     23.116000     51.736000    L
 N-N--0.435875   -1   46.797000     21.503000     50.987000    L
 H-H-0.251302    -1   45.969000     20.949000     51.150000    L
 C-CT--0.038773  -1   47.519000     21.252000     49.729000    L
 H-H1-0.129478   -1   48.072000     22.150000     49.451000    L
 C-CT--0.108273  -1   48.518000     20.082000     49.892000    L
 H-HC-0.045214   -1   47.957000     19.154000     50.019000    L
 H-HC-0.045214   -1   49.105000     20.000000     48.976000    L
 C-CT-0.033341   -1   49.480000     20.234000     51.083000    L
 H-HC-0.010208   -1   49.973000     21.204000     51.022000    L
 H-HC-0.010208   -1   48.898000     20.190000     52.004000    L
 C-CT--0.047841  -1   50.557000     19.138000     51.131000    L
 H-HC-0.070715   -1   50.143000     18.194000     50.775000    L
 H-HC-0.070715   -1   51.386000     19.419000     50.480000    L
 C-CT--0.069974  -1   51.039000     18.962000     52.579000    L
 H-HP-0.119522   -1   51.419000     19.915000     52.958000    L
 H-HP-0.119522   -1   50.183000     18.679000     53.198000    L
 N-N3--0.250358  -1   52.083000     17.921000     52.712000    L
 H-H-0.294561    -1   52.337000     17.790000     53.690000    L
 H-H-0.294561    -1   51.764000     17.016000     52.371000    L
 H-H-0.294561    -1   52.916000     18.155000     52.196000    L
 C-C-0.725129    -1   46.525000     20.941000     48.598000    L
 O-O--0.563157   -1   45.479000     20.336000     48.844000    L
 N-N--0.427579   -1   46.848000     21.318000     47.358000    L
 H-H-0.241716    -1   47.713000     21.817000     47.211000    L
 C-CT--0.020082   0   46.046752     20.957549     46.179608    L
 H-H1-0.106629    0   45.015539     21.276819     46.346924    L
 C-CT--0.098364   0   46.587616     21.708926     44.951532    L
 H-HC-0.065424    0   47.642961     21.470300     44.813185    L
 H-HC-0.065424    0   46.053542     21.365189     44.064878    L
 C-C*--0.099797   0   46.436506     23.197453     45.022255    L
 C-CW--0.174053   0   47.377068     24.062501     45.466687    L
 H-H4-0.170633    0   48.367532     23.792897     45.810468    L
 N-NA--0.298433   0   46.856180     25.341481     45.467520    L
 H-H-0.322375     0   47.308018     26.158662     45.876080    L
 C-CN-0.141523    0   45.558351     25.368162     45.014436    L
 C-CA--0.210701   0   44.619980     26.399181     44.872734    L
 H-HA-0.125512    0   44.891873     27.410242     45.136694    L
 C-CA--0.133022   0   43.336505     26.094255     44.390087    L
 H-HA-0.119467    0   42.596863     26.875778     44.266985    L
 C-CA--0.164054   0   43.018727     24.767375     44.049691    L
 H-HA-0.119250    0   42.034970     24.541777     43.661404    L
 C-CA--0.153992   0   43.969972     23.740975     44.203346    L
 H-HA-0.123084    0   43.709957     22.730239     43.937844    L
 C-CB-0.089641    0   45.263112     24.010468     44.701063    L
 C-C-0.584129    -1   46.033000     19.434000     45.948000    L
 O-O--0.494730   -1   47.009000     18.743000     46.249000    L
 N-N--0.558201   -1   44.957000     18.904000     45.366000    L
 H-H-0.319676    -1   44.181000     19.530000     45.154000    L
 C-CT-0.007225   -1   44.814000     17.480000     44.999000    L
 H-H1-0.082375   -1   45.109000     16.861000     45.847000    L
 C-CT--0.047555  -1   43.337000     17.179000     44.686000    L
 H-HC--0.014836  -1   43.033000     17.765000     43.816000    L
 H-HC--0.014836  -1   43.239000     16.124000     44.428000    L
 C-C-0.745168    -1   42.394000     17.476000     45.856000    L
 O-O2--0.730385  -1   42.595000     16.918000     46.960000    L
 O-O2--0.730385  -1   41.443000     18.276000     45.676000    L
 C-C-0.443199    -1   45.690000     17.071000     43.793000    L
 O-O--0.501445   -1   45.922000     15.884000     43.550000    L
 N-N--0.435875   -1   46.187000     18.063000     43.046000    L
 H-H-0.251302    -1   45.994000     19.001000     43.364000    L
 C-CT--0.038773  -1   46.775000     17.933000     41.707000    L
 H-H1-0.129478   -1   47.057000     16.898000     41.532000    L
 C-CT--0.108273  -1   45.688000     18.306000     40.681000    L
 H-HC-0.045214   -1   46.076000     18.138000     39.677000    L
 H-HC-0.045214   -1   44.834000     17.640000     40.817000    L
 C-CT-0.033341   -1   45.212000     19.766000     40.797000    L
 H-HC-0.010208   -1   44.742000     19.926000     41.769000    L
 H-HC-0.010208   -1   46.061000     20.443000     40.701000    L
 C-CT--0.047841  -1   44.195000     20.077000     39.698000    L
 H-HC-0.070715   -1   44.664000     19.941000     38.721000    L
 H-HC-0.070715   -1   43.357000     19.387000     39.797000    L
 C-CT--0.069974  -1   43.685000     21.514000     39.831000    L
 H-HP-0.119522   -1   43.156000     21.619000     40.781000    L
 H-HP-0.119522   -1   44.539000     22.197000     39.842000    L
 N-N3--0.250358  -1   42.785000     21.882000     38.715000    L
 H-H-0.294561    -1   42.357000     22.789000     38.904000    L
 H-H-0.294561    -1   43.308000     21.980000     37.852000    L
 H-H-0.294561    -1   42.046000     21.200000     38.580000    L
 C-C-0.725129    -1   48.055000     18.770000     41.526000    L
 O-O--0.563157   -1   48.356000     19.639000     42.349000    L
 N-N--0.430106   -1   48.785000     18.532000     40.432000    L
 H-H-0.254543    -1   48.466000     17.807000     39.798000    L
 C-CT-0.044609   -1   50.119000     19.094000     40.182000    L
 H-H1-0.059601   -1   50.469000     19.573000     41.096000    L
 C-CT--0.093650  -1   51.112000     17.954000     39.872000    L
 H-HC-0.043321   -1   50.760000     17.382000     39.012000    L
 H-HC-0.043321   -1   52.073000     18.393000     39.608000    L
 C-C-0.583519    -1   51.365000     16.994000     41.038000    L
 O-O--0.526813   -1   50.678000     16.992000     42.053000    L
 N-N--0.781735   -1   52.387000     16.165000     40.945000    L
 H-H-0.355079    -1   52.546000     15.502000     41.687000    L
 H-H-0.355079    -1   53.006000     16.170000     40.144000    L
 C-C-0.617141    -1   50.130000     20.190000     39.090000    L
 O-O--0.523909   -1   51.155000     20.844000     38.888000    L
 N-N--0.387353   -1   49.006000     20.458000     38.419000    L
 H-H-0.300605    -1   48.220000     19.827000     38.533000    L
 C-CT-0.037470   -1   48.817000     21.631000     37.555000    L
 H-H1-0.152255   -1   49.718000     22.247000     37.537000    L
 C-CT--0.032112  -1   48.483000     21.212000     36.119000    L
 H-HC-0.030995   -1   47.500000     20.734000     36.112000    L
 H-HC-0.030995   -1   48.430000     22.129000     35.533000    L
 C-CT--0.020264  -1   49.475000     20.277000     35.417000    L
 H-HC-0.030791   -1   50.471000     20.721000     35.439000    L
 H-HC-0.030791   -1   49.512000     19.320000     35.937000    L
 C-C-0.667812    -1   49.080000     20.027000     33.956000    L
 O-O--0.628483   -1   48.109000     20.568000     33.423000    L
 N-N--0.883393   -1   49.818000     19.202000     33.253000    L
 H-H-0.408312    -1   49.636000     19.072000     32.264000    L
 H-H-0.408312    -1   50.578000     18.698000     33.705000    L
 C-C-0.418577    -1   47.662000     22.491000     38.078000    L
 O-O--0.565310   -1   46.684000     21.965000     38.605000    L
 N-N--0.451047   -1   47.710000     23.806000     37.859000    L
 H-H-0.328831    -1   48.514000     24.191000     37.362000    L
 C-CT--0.101874  -1   46.750000     24.785000     38.403000    L
 H-H1-0.174193   -1   45.873000     24.278000     38.809000    L
 C-CT-0.062238   -1   47.445000     25.575000     39.545000    L
 H-HC-0.061662   -1   48.313000     26.063000     39.104000    L
 C-CT--0.129989  -1   46.550000     26.682000     40.131000    L
 H-HC-0.030227   -1   47.050000     27.158000     40.975000    L
 H-HC-0.030227   -1   46.351000     27.451000     39.385000    L
 H-HC-0.030227   -1   45.607000     26.260000     40.475000    L
 C-CT-0.022230   -1   47.985000     24.686000     40.695000    L
 H-HC-0.011551   -1   48.703000     23.970000     40.296000    L
 H-HC-0.011551   -1   48.536000     25.318000     41.392000    L
 C-CT--0.101251  -1   46.925000     23.915000     41.495000    L
 H-HC-0.023792   -1   46.332000     23.280000     40.841000    L
 H-HC-0.023792   -1   47.424000     23.286000     42.233000    L
 H-HC-0.023792   -1   46.267000     24.609000     42.018000    L
 C-C-0.569383    -1   46.261000     25.712000     37.276000    L
 O-O--0.619535   -1   47.019000     26.012000     36.347000    L
 N-N--0.245382   -1   45.012000     26.181000     37.358000    L
 H-H-0.255339    -1   44.444000     25.886000     38.146000    L
 C-CT--0.271249  -1   44.379000     27.079000     36.376000    L
 H-H1-0.163757   -1   45.083000     27.295000     35.572000    L
 C-CT-0.237868   -1   43.133000     26.445000     35.740000    L
 H-H1-0.044688   -1   42.662000     27.187000     35.094000    L
 C-CT--0.176489  -1   43.494000     25.234000     34.882000    L
 H-HC-0.060019   -1   42.604000     24.865000     34.372000    L
 H-HC-0.060019   -1   44.228000     25.523000     34.129000    L
 H-HC-0.060019   -1   43.906000     24.439000     35.500000    L
 O-OH--0.601931  -1   42.194000     26.049000     36.722000    L
 H-HO-0.405484   -1   42.650000     25.482000     37.378000    L
 C-C-0.559878    -1   44.021000     28.410000     37.014000    L
 O-O--0.552020   -1   43.649000     28.464000     38.186000    L
 N-N--0.487560   -1   44.084000     29.484000     36.229000    L
 H-H-0.263521    -1   44.423000     29.382000     35.277000    L
 C-CT-0.009614   -1   43.679000     30.820000     36.679000    L
 H-H1-0.095501   -1   43.034000     30.689000     37.542000    L
 C-CT--0.051853  -1   44.903000     31.616000     37.158000    L
 H-HC-0.019145   -1   44.549000     32.465000     37.744000    L
 H-HC-0.019145   -1   45.483000     30.992000     37.839000    L
 C-CA-0.112601   -1   45.831000     32.146000     36.080000    L
 C-CA--0.183461  -1   46.877000     31.341000     35.587000    L
 H-HA-0.132715   -1   46.981000     30.323000     35.933000    L
 C-CA--0.181823  -1   47.809000     31.873000     34.675000    L
 H-HA-0.137303   -1   48.634000     31.273000     34.320000    L
 C-C-0.206277    -1   47.698000     33.216000     34.256000    L
 O-OH--0.421233  -1   48.642000     33.750000     33.437000    L
 H-HO-0.329691   -1   48.548000     34.711000     33.348000    L
 C-CA--0.181823  -1   46.631000     34.015000     34.726000    L
 H-HA-0.137303   -1   46.547000     35.043000     34.407000    L
 C-CA--0.183461  -1   45.700000     33.477000     35.635000    L
 H-HA-0.132715   -1   44.905000     34.100000     36.017000    L
 C-C-0.622290    -1   42.848000     31.585000     35.640000    L
 O-O--0.526607   -1   42.881000     31.276000     34.447000    L
 N-N--0.300879   -1   42.077000     32.580000     36.091000    L
 H-H-0.233693    -1   42.076000     32.769000     37.090000    L
 C-CT--0.131381  -1   41.211000     33.392000     35.224000    L
 H-H1-0.053266   -1   41.697000     33.497000     34.256000    L
 C-CT-0.036707   -1   39.874000     32.654000     35.029000    L
 H-HC-0.028012   -1   40.080000     31.682000     34.583000    L
 H-HC-0.028012   -1   39.411000     32.497000     36.001000    L
 C-CT-0.012454   -1   38.895000     33.404000     34.120000    L
 H-HC-0.002964   -1   38.601000     34.340000     34.597000    L
 H-HC-0.002964   -1   39.388000     33.629000     33.176000    L
 C-CT-0.126329   -1   37.631000     32.595000     33.822000    L
 H-H1-0.068148   -1   37.908000     31.656000     33.340000    L
 H-H1-0.068148   -1   37.111000     32.378000     34.757000    L
 N-N2--0.464890  -1   36.756000     33.363000     32.928000    L
 H-H-0.326274    -1   37.130000     34.249000     32.587000    L
 C-CA-0.565543   -1   35.537000     33.038000     32.529000    L
 N-N2--0.685774  -1   34.916000     31.954000     32.938000    L
 H-H-0.391052    -1   35.341000     31.317000     33.602000    L
 H-H-0.391052    -1   33.981000     31.788000     32.586000    L
 N-N2--0.685774  -1   34.897000     33.816000     31.689000    L
 H-H-0.391052    -1   35.342000     34.645000     31.319000    L
 H-H-0.391052    -1   33.980000     33.541000     31.367000    L
 C-C-0.730308    -1   40.995000     34.787000     35.812000    L
 O-O--0.578332   -1   40.817000     34.915000     37.021000    L
 N-N--0.451047   -1   40.971000     35.829000     34.977000    L
 H-H-0.328831    -1   41.072000     35.639000     33.981000    L
 C-CT--0.101874  -1   40.839000     37.233000     35.425000    L
 H-H1-0.174193   -1   40.862000     37.263000     36.514000    L
 C-CT-0.062238   -1   42.017000     38.108000     34.915000    L
 H-HC-0.061662   -1   41.886000     38.269000     33.843000    L
 C-CT--0.129989  -1   41.957000     39.476000     35.628000    L
 H-HC-0.030227   -1   42.759000     40.125000     35.283000    L
 H-HC-0.030227   -1   41.019000     39.983000     35.407000    L
 H-HC-0.030227   -1   42.050000     39.346000     36.707000    L
 C-CT-0.022230   -1   43.401000     37.441000     35.131000    L
 H-HC-0.011551   -1   43.564000     37.276000     36.195000    L
 H-HC-0.011551   -1   43.416000     36.471000     34.634000    L
 C-CT--0.101251  -1   44.592000     38.233000     34.570000    L
 H-HC-0.023792   -1   45.493000     37.621000     34.633000    L
 H-HC-0.023792   -1   44.412000     38.489000     33.526000    L
 H-HC-0.023792   -1   44.756000     39.143000     35.147000    L
 C-C-0.569383    -1   39.480000     37.803000     34.993000    L
 O-O--0.619535   -1   39.092000     37.657000     33.835000    L
 N-N--0.451047   -1   38.765000     38.450000     35.921000    L
 H-H-0.328831    -1   39.136000     38.460000     36.870000    L
 C-CT--0.101874  -1   37.419000     39.031000     35.706000    L
 H-H1-0.174193   -1   37.288000     39.192000     34.634000    L
 C-CT-0.062238   -1   36.308000     38.046000     36.164000    L
 H-HC-0.061662   -1   35.347000     38.536000     35.996000    L
 C-CT--0.129989  -1   36.294000     36.771000     35.301000    L
 H-HC-0.030227   -1   37.177000     36.164000     35.499000    L
 H-HC-0.030227   -1   35.403000     36.181000     35.514000    L
 H-HC-0.030227   -1   36.272000     37.043000     34.245000    L
 C-CT-0.022230   -1   36.424000     37.712000     37.669000    L
 H-HC-0.011551   -1   37.282000     37.060000     37.837000    L
 H-HC-0.011551   -1   36.586000     38.633000     38.225000    L
 C-CT--0.101251  -1   35.173000     37.044000     38.251000    L
 H-HC-0.023792   -1   34.304000     37.685000     38.101000    L
 H-HC-0.023792   -1   34.998000     36.081000     37.775000    L
 H-HC-0.023792   -1   35.314000     36.884000     39.320000    L
 C-C-0.569383    -1   37.251000     40.434000     36.335000    L
 O-O--0.619535   -1   36.132000     40.855000     36.654000    L
 N-N--0.374282   -1   38.350000     41.158000     36.576000    L
 H-H-0.253981    -1   39.245000     40.776000     36.305000    L
 C-CT--0.128844  -1   38.319000     42.560000     37.014000    L
 H-HC-0.088859   -1   37.742000     43.129000     36.289000    L
 H-HC-0.088859   -1   37.795000     42.648000     37.965000    L
 C-C-0.580584    -1   39.685000     43.225000     37.150000    L
 O-O--0.509157   -1   40.679000     42.554000     37.419000    L
 N-N--0.487560   -1   39.707000     44.554000     37.013000    L
 H-H-0.263521    -1   38.811000     45.010000     36.880000    L
 C-CT-0.009614   -1   40.911000     45.407000     36.952000    L
 H-H1-0.095501   -1   41.745000     44.891000     37.429000    L
 C-CT--0.051853  -1   41.282000     45.644000     35.473000    L
 H-HC-0.019145   -1   40.470000     46.191000     34.991000    L
 H-HC-0.019145   -1   42.169000     46.278000     35.425000    L
 C-CA-0.112601   -1   41.572000     44.388000     34.668000    L
 C-CA--0.183461  -1   42.871000     43.842000     34.642000    L
 H-HA-0.132715   -1   43.667000     44.317000     35.197000    L
 C-CA--0.181823  -1   43.137000     42.678000     33.894000    L
 H-HA-0.137303   -1   44.133000     42.258000     33.871000    L
 C-C-0.206277    -1   42.095000     42.049000     33.174000    L
 O-OH--0.421233  -1   42.336000     40.911000     32.468000    L
 H-HO-0.329691   -1   41.536000     40.568000     32.063000    L
 C-CA--0.181823  -1   40.795000     42.598000     33.197000    L
 H-HA-0.137303   -1   39.991000     42.119000     32.657000    L
 C-CA--0.183461  -1   40.540000     43.766000     33.938000    L
 H-HA-0.132715   -1   39.542000     44.174000     33.967000    L
 C-C-0.622290    -1   40.709000     46.750000     37.700000    L
 O-O--0.526607   -1   39.659000     46.971000     38.305000    L
 N-N--0.245382   -1   41.693000     47.661000     37.655000    L
 H-H-0.255339    -1   42.501000     47.464000     37.080000    L
 C-CT--0.271249  -1   41.681000     48.977000     38.327000    L
 H-H1-0.163757   -1   40.703000     49.138000     38.778000    L
 C-CT-0.237868   -1   42.709000     48.974000     39.471000    L
 H-H1-0.044688   -1   42.457000     48.171000     40.165000    L
 C-CT--0.176489  -1   44.159000     48.782000     39.016000    L
 H-HC-0.060019   -1   44.809000     48.776000     39.890000    L
 H-HC-0.060019   -1   44.273000     47.832000     38.496000    L
 H-HC-0.060019   -1   44.463000     49.594000     38.355000    L
 O-OH--0.601931  -1   42.642000     50.191000     40.164000    L
 H-HO-0.405484   -1   41.807000     50.203000     40.682000    L
 C-C-0.559878    -1   41.940000     50.094000     37.299000    L
 O-O--0.552020   -1   42.562000     49.800000     36.276000    L
 N-N--0.088116   -1   41.463000     51.343000     37.499000    L
 C-CT--0.011906  -1   40.548000     51.784000     38.538000    L
 H-H1-0.043951   -1   41.127000     52.108000     39.402000    L
 H-H1-0.043950   -1   39.835000     51.017000     38.830000    L
 C-CT-0.013059   -1   39.818000     52.985000     37.949000    L
 H-HC-0.019574   -1   39.442000     53.646000     38.730000    L
 H-HC-0.019574   -1   39.011000     52.651000     37.297000    L
 C-CT--0.003351  -1   40.910000     53.646000     37.117000    L
 H-HC-0.019352   -1   41.495000     54.303000     37.762000    L
 H-HC-0.019352   -1   40.490000     54.213000     36.287000    L
 C-CT--0.034577  -1   41.775000     52.475000     36.624000    L
 H-H1-0.059977   -1   41.496000     52.222000     35.605000    L
 C-C-0.333720    -1   43.251000     52.884000     36.641000    L
 O-O--0.434559   -1   43.724000     53.473000     35.670000    L
 N-N--0.558201   -1   43.969000     52.620000     37.739000    L
 H-H-0.319676    -1   43.528000     52.132000     38.511000    L
 C-CT-0.007225   -1   45.288000     53.213000     37.980000    L
 H-H1-0.082375   -1   45.214000     54.274000     37.749000    L
 C-CT--0.047555  -1   45.668000     53.076000     39.465000    L
 H-HC--0.014836  -1   45.646000     52.018000     39.738000    L
 H-HC--0.014836  -1   46.693000     53.429000     39.595000    L
 C-C-0.745168    -1   44.785000     53.870000     40.435000    L
 O-O2--0.730385  -1   44.249000     54.942000     40.062000    L
 O-O2--0.730385  -1   44.668000     53.428000     41.599000    L
 C-C-0.443199    -1   46.417000     52.626000     37.111000    L
 O-O--0.501445   -1   47.435000     53.299000     36.907000    L
 N-N--0.355153   -1   46.257000     51.394000     36.607000    L
 H-H-0.262417    -1   45.355000     50.950000     36.731000    L
 C-CT--0.101497  -1   47.336000     50.590000     36.023000    L
 H-H1-0.136951   -1   48.071000     51.263000     35.586000    L
 C-CT--0.144399  -1   47.996000     49.791000     37.170000    L
 H-HC-0.052533   -1   48.313000     50.491000     37.945000    L
 H-HC-0.052533   -1   47.238000     49.137000     37.607000    L
 C-CT-0.191982   -1   49.209000     48.926000     36.767000    L
 H-HC-0.000825   -1   48.906000     48.210000     36.002000    L
 C-CT--0.123036  -1   50.365000     49.769000     36.210000    L
 H-HC-0.022376   -1   50.067000     50.257000     35.282000    L
 H-HC-0.022376   -1   50.656000     50.526000     36.939000    L
 H-HC-0.022376   -1   51.222000     49.128000     35.997000    L
 C-CT--0.123036  -1   49.703000     48.138000     37.990000    L
 H-HC-0.022376   -1   48.897000     47.516000     38.380000    L
 H-HC-0.022376   -1   50.534000     47.491000     37.704000    L
 H-HC-0.022376   -1   50.036000     48.822000     38.772000    L
 C-C-0.573471    -1   46.833000     49.661000     34.908000    L
 O-O--0.557847   -1   45.892000     48.893000     35.092000    L
 N-N--0.558201   -1   47.517000     49.716000     33.764000    L
 H-H-0.319676    -1   48.193000     50.469000     33.684000    L
 C-CT-0.007225   -1   47.250000     48.953000     32.540000    L
 H-H1-0.082375   -1   46.417000     49.436000     32.031000    L
 C-CT--0.047555  -1   48.472000     49.102000     31.624000    L
 H-HC--0.014836  -1   48.518000     50.124000     31.264000    L
 H-HC--0.014836  -1   49.379000     48.907000     32.197000    L
 C-C-0.745168    -1   48.435000     48.174000     30.414000    L
 O-O2--0.730385  -1   49.478000     47.548000     30.125000    L
 O-O2--0.730385  -1   47.376000     48.095000     29.748000    L
 C-C-0.443199    -1   46.921000     47.457000     32.757000    L
 O-O--0.501445   -1   47.809000     46.701000     33.167000    L
 N-N--0.088116   -1   45.708000     46.994000     32.388000    L
 C-CT--0.011906  -1   44.554000     47.818000     32.044000    L
 H-H1-0.043951   -1   44.700000     48.262000     31.059000    L
 H-H1-0.043950   -1   44.393000     48.601000     32.787000    L
 C-CT-0.013059   -1   43.354000     46.876000     32.012000    L
 H-HC-0.019574   -1   42.606000     47.201000     31.289000    L
 H-HC-0.019574   -1   42.919000     46.803000     33.009000    L
 C-CT--0.003351  -1   43.990000     45.542000     31.628000    L
 H-HC-0.019352   -1   44.169000     45.514000     30.554000    L
 H-HC-0.019352   -1   43.377000     44.696000     31.933000    L
 C-CT--0.034577  -1   45.330000     45.581000     32.364000    L
 H-H1-0.059977   -1   45.159000     45.270000     33.394000    L
 C-C-0.333720    -1   46.347000     44.621000     31.725000    L
 O-O--0.434559   -1   46.547000     43.534000     32.260000    L
 N-N--0.423392   -1   47.027000     44.995000     30.630000    L
 H-H-0.306811    -1   46.852000     45.909000     30.224000    L
 C-CT-0.031633   -1   48.050000     44.136000     30.004000    L
 H-H1-0.065100   -1   47.623000     43.140000     29.875000    L
 C-CT-0.074772   -1   48.383000     44.687000     28.601000    L
 H-HC--0.003535  -1   47.454000     44.818000     28.044000    L
 H-HC--0.003535  -1   48.852000     45.660000     28.701000    L
 C-CT--0.033909  -1   49.308000     43.773000     27.787000    L
 H-HC--0.004135  -1   50.230000     43.607000     28.343000    L
 H-HC--0.004135  -1   48.815000     42.810000     27.645000    L
 C-C-0.765188    -1   49.691000     44.350000     26.421000    L
 O-O2--0.824035  -1   49.898000     45.580000     26.289000    L
 O-O2--0.824035  -1   49.931000     43.549000     25.485000    L
 C-C-0.469735    -1   49.309000     43.982000     30.892000    L
 O-O--0.592528   -1   49.930000     42.915000     30.922000    L
 N-N--0.245382   -1   49.652000     45.030000     31.655000    L
 H-H-0.255339    -1   49.091000     45.866000     31.544000    L
 C-CT--0.271249  -1   50.744000     45.079000     32.647000    L
 H-H1-0.163757   -1   51.600000     44.527000     32.259000    L
 C-CT-0.237868   -1   51.165000     46.542000     32.860000    L
 H-H1-0.044688   -1   50.313000     47.124000     33.215000    L
 C-CT--0.176489  -1   52.310000     46.721000     33.852000    L
 H-HC-0.060019   -1   52.652000     47.756000     33.844000    L
 H-HC-0.060019   -1   51.965000     46.487000     34.859000    L
 H-HC-0.060019   -1   53.138000     46.065000     33.588000    L
 O-OH--0.601931  -1   51.610000     47.063000     31.625000    L
 H-HO-0.405484   -1   50.823000     47.181000     31.049000    L
 C-C-0.559878    -1   50.355000     44.415000     33.972000    L
 O-O--0.552020   -1   51.208000     43.804000     34.615000    L
 N-N--0.450087   -1   49.081000     44.487000     34.360000    L
 H-H-0.440048    -1   48.475000     45.110000     33.830000    L
 C-CT--0.051858  -1   48.490000     43.721000     35.476000    L
 H-H1--0.026204  -1   49.081000     43.916000     36.373000    L
 C-CT-0.395217   -1   47.036000     44.185000     35.743000    L
 H-HC--0.115672  -1   46.516000     44.238000     34.790000    L
 C-CT--0.090132  -1   46.231000     43.236000     36.646000    L
 H-HC--0.008985  -1   46.777000     43.039000     37.567000    L
 H-HC--0.008985  -1   45.265000     43.679000     36.890000    L
 H-HC--0.008985  -1   46.046000     42.297000     36.125000    L
 C-CT--0.090132  -1   47.013000     45.593000     36.363000    L
 H-HC--0.008985  -1   47.490000     45.581000     37.341000    L
 H-HC--0.008985  -1   47.541000     46.297000     35.724000    L
 H-HC--0.008985  -1   45.983000     45.934000     36.472000    L
 C-C-0.447359    -1   48.541000     42.209000     35.191000    L
 O-O--0.404629   -1   48.955000     41.431000     36.048000    L
 N-N--0.558201   -1   48.179000     41.789000     33.974000    L
 H-H-0.319676    -1   47.789000     42.464000     33.322000    L
 C-CT-0.007225   -1   48.306000     40.403000     33.511000    L
 H-H1-0.082375   -1   47.732000     39.757000     34.176000    L
 C-CT--0.047555  -1   47.682000     40.322000     32.106000    L
 H-HC--0.014836  -1   46.617000     40.548000     32.178000    L
 H-HC--0.014836  -1   48.139000     41.075000     31.464000    L
 C-C-0.745168    -1   47.856000     38.954000     31.454000    L
 O-O2--0.730385  -1   48.792000     38.793000     30.636000    L
 O-O2--0.730385  -1   47.089000     38.018000     31.781000    L
 C-C-0.443199    -1   49.770000     39.909000     33.531000    L
 O-O--0.501445   -1   50.034000     38.761000     33.899000    L
 N-N--0.558201   -1   50.717000     40.789000     33.189000    L
 H-H-0.319676    -1   50.409000     41.709000     32.895000    L
 C-CT-0.007225   -1   52.161000     40.519000     33.194000    L
 H-H1-0.082375   -1   52.336000     39.600000     32.633000    L
 C-CT--0.047555  -1   52.874000     41.678000     32.477000    L
 H-HC--0.014836  -1   52.354000     41.911000     31.549000    L
 H-HC--0.014836  -1   52.850000     42.568000     33.105000    L
 C-C-0.745168    -1   54.319000     41.348000     32.130000    L
 O-O2--0.730385  -1   55.238000     42.053000     32.617000    L
 O-O2--0.730385  -1   54.535000     40.417000     31.317000    L
 C-C-0.443199    -1   52.743000     40.331000     34.608000    L
 O-O--0.501445   -1   53.692000     39.561000     34.787000    L
 N-N--0.404773   -1   52.165000     41.010000     35.609000    L
 H-H-0.294276    -1   51.397000     41.630000     35.367000    L
 C-CT--0.027733  -1   52.528000     40.877000     37.021000    L
 H-H1-0.120802   -1   53.609000     40.987000     37.120000    L
 C-CT--0.229951  -1   51.842000     42.002000     37.813000    L
 H-HC-0.077428   -1   50.760000     41.947000     37.699000    L
 H-HC-0.077428   -1   52.070000     41.903000     38.873000    L
 H-HC-0.077428   -1   52.184000     42.975000     37.461000    L
 C-C-0.570224    -1   52.157000     39.497000     37.590000    L
 O-O--0.555129   -1   52.975000     38.868000     38.266000    L