%chk=mmp2_full_r.gjf.chk
%mem=3700MB
%nprocshared=4

#P ONIOM(B3LYP/6-31G(d):AMBER=HardFirst) geom=connectivity nosymm iop(2/15=3) test

ONIOM inputfile generated by pdb2oniom from PDB file mmp2_full_r.pdb. No connectivity generated.
Please use GaussView read mmp2_full_r.gjf, and generate connectivity information.

0 1 0 1 0 1
 N-N3-0.096600   -1       41.5070000      23.2020000      52.2750000   L
 H-H-0.216500    -1       40.5600000      22.8410000      52.2490000   L
 H-H-0.216500    -1       41.6870000      23.6530000      51.3840000   L
 H-H-0.216500    -1       41.5590000      23.9020000      53.0060000   L
 C-CT--0.001500  -1       42.4900000      22.1150000      52.5110000   L
 H-HP-0.118000   -1       42.3770000      21.7930000      53.5460000   L
 C-CT-0.021200   -1       42.2070000      20.8970000      51.6050000   L
 H-HC-0.028300   -1       42.8750000      20.0870000      51.8970000   L
 H-HC-0.028300   -1       41.1860000      20.5620000      51.7900000   L
 C-CT--0.004800  -1       42.3840000      21.1510000      50.0960000   L
 H-HC-0.012100   -1       41.6760000      21.9060000      49.7620000   L
 H-HC-0.012100   -1       43.3920000      21.5200000      49.9160000   L
 C-CT--0.060800  -1       42.1800000      19.8860000      49.2490000   L
 H-HC-0.063300   -1       42.5840000      20.0650000      48.2500000   L
 H-HC-0.063300   -1       42.7340000      19.0640000      49.6980000   L
 C-CT--0.018100  -1       40.6980000      19.5150000      49.1210000   L
 H-HP-0.117100   -1       40.2480000      19.4620000      50.1160000   L
 H-HP-0.117100   -1       40.1900000      20.3090000      48.5650000   L
 N-N3--0.376400  -1       40.5180000      18.2200000      48.4260000   L
 H-H-0.338200    -1       40.8830000      17.4470000      48.9790000   L
 H-H-0.338200    -1       39.5340000      18.0430000      48.2460000   L
 H-H-0.338200    -1       41.0080000      18.2010000      47.5300000   L
 C-C-0.721400    -1       43.9210000      22.6480000      52.3620000   L
 O-O--0.601300   -1       44.0900000      23.6070000      51.6120000   L
 N-N--0.088116	 -1       44.9360000      22.0760000      53.0430000   L
 C-CT--0.011906	 -1       44.8260000      20.9730000      53.9910000   L
 H-H1-0.043951	 -1       44.4230000      20.0750000      53.5240000   L
 H-H1-0.043950	 -1       44.1980000      21.2780000      54.8310000   L
 C-CT-0.013059	 -1       46.2470000      20.7070000      54.4890000   L
 H-HC-0.019574	 -1       46.7500000      20.0100000      53.8190000   L
 H-HC-0.019574	 -1       46.2540000      20.3330000      55.5130000   L
 C-CT--0.003351	 -1       46.9100000      22.0760000      54.3790000   L
 H-HC-0.019352	 -1       47.9960000      21.9980000      54.3050000   L
 H-HC-0.019352	 -1       46.6340000      22.6820000      55.2440000   L
 C-CT--0.034577	 -1       46.2750000      22.6700000      53.1180000   L
 H-H1-0.059977	 -1       46.1880000      23.7490000      53.2510000   L
 C-C-0.333720	 -1       47.1550000      22.4320000      51.8830000   L
 O-O--0.434559	 -1       48.1620000      23.1160000      51.7360000   L
 N-N--0.435875	 -1       46.7970000      21.5030000      50.9870000   L
 H-H-0.251302	 -1       45.9690000      20.9490000      51.1500000   L
 C-CT--0.038773	 -1       47.5190000      21.2520000      49.7290000   L
 H-H1-0.129478	 -1       48.0720000      22.1500000      49.4510000   L
 C-CT--0.108273	 -1       48.5180000      20.0820000      49.8920000   L
 H-HC-0.045214	 -1       47.9570000      19.1540000      50.0190000   L
 H-HC-0.045214	 -1       49.1050000      20.0000000      48.9760000   L
 C-CT-0.033341	 -1       49.4800000      20.2340000      51.0830000   L
 H-HC-0.010208	 -1       49.9730000      21.2040000      51.0220000   L
 H-HC-0.010208	 -1       48.8980000      20.1900000      52.0040000   L
 C-CT--0.047841	 -1       50.5570000      19.1380000      51.1310000   L
 H-HC-0.070715	 -1       50.1430000      18.1940000      50.7750000   L
 H-HC-0.070715	 -1       51.3860000      19.4190000      50.4800000   L
 C-CT--0.069974	 -1       51.0390000      18.9620000      52.5790000   L
 H-HP-0.119522	 -1       51.4190000      19.9150000      52.9580000   L
 H-HP-0.119522	 -1       50.1830000      18.6790000      53.1980000   L
 N-N3--0.250358	 -1       52.0830000      17.9210000      52.7120000   L
 H-H-0.294561	 -1       52.3370000      17.7900000      53.6900000   L
 H-H-0.294561	 -1       51.7640000      17.0160000      52.3710000   L
 H-H-0.294561	 -1       52.9160000      18.1550000      52.1960000   L
 C-C-0.725129	 -1       46.5250000      20.9410000      48.5980000   L
 O-O--0.563157	 -1       45.4790000      20.3360000      48.8440000   L
 N-N--0.427579	  0       46.8480000      21.3180000      47.3580000   L
 H-H-0.241716	  0       47.7130000      21.8170000      47.2110000   L
 C-CT--0.020082	  0       46.0440000      20.9590000      46.1810000   L
 H-H1-0.106629	  0       45.0110000      21.2730000      46.3510000   L
 C-CT--0.098364	  0       46.5770000      21.7190000      44.9530000   L
 H-HC-0.065424	  0       47.6300000      21.4760000      44.8040000   L
 H-HC-0.065424	  0       46.0350000      21.3800000      44.0700000   L
 C-C*--0.099797	  0       46.4320000      23.2100000      45.0280000   L
 C-CW--0.174053	  0       47.3800000      24.0750000      45.4560000   L
 H-H4-0.170633	  0       48.3740000      23.7990000      45.7860000   L
 N-NA--0.298433	  0       46.8710000      25.3590000      45.4520000   L
 H-H-0.322375	  0       47.3530000      26.1690000      45.8390000   L
 C-CN-0.141523	  0       45.5690000      25.3910000      45.0130000   L
 C-CA--0.210701	  0       44.6360000      26.4280000      44.8700000   L
 H-HA-0.125512	  0       44.9150000      27.4400000      45.1230000   L
 C-CA--0.133022	  0       43.3470000      26.1280000      44.3990000   L
 H-HA-0.119467	  0       42.6140000      26.9140000      44.2780000   L
 C-CA--0.164054	  0       43.0190000      24.8010000      44.0710000   L
 H-HA-0.119250	  0       42.0330000      24.5710000      43.6900000   L
 C-CA--0.153992	  0       43.9630000      23.7680000      44.2260000   L
 H-HA-0.123084	  0       43.6920000      22.7570000      43.9690000   L
 C-CB-0.089641	  0       45.2620000      24.0310000      44.7120000   L
 C-C-0.584129	  0       46.0330000      19.4340000      45.9480000   L
 O-O--0.494730	  0       47.0090000      18.7430000      46.2490000   L
 N-N--0.558201	 -1       44.9570000      18.9040000      45.3660000   L
 H-H-0.319676	 -1       44.1810000      19.5300000      45.1540000   L
 C-CT-0.007225	 -1       44.8140000      17.4800000      44.9990000   L
 H-H1-0.082375	 -1       45.1090000      16.8610000      45.8470000   L
 C-CT--0.047555	 -1       43.3370000      17.1790000      44.6860000   L
 H-HC--0.014836	 -1       43.0330000      17.7650000      43.8160000   L
 H-HC--0.014836	 -1       43.2390000      16.1240000      44.4280000   L
 C-C-0.745168	 -1       42.3940000      17.4760000      45.8560000   L
 O-O2--0.730385	 -1       42.5950000      16.9180000      46.9600000   L
 O-O2--0.730385	 -1       41.4430000      18.2760000      45.6760000   L
 C-C-0.443199	 -1       45.6900000      17.0710000      43.7930000   L
 O-O--0.501445	 -1       45.9220000      15.8840000      43.5500000   L
 N-N--0.435875	 -1       46.1870000      18.0630000      43.0460000   L
 H-H-0.251302	 -1       45.9940000      19.0010000      43.3640000   L
 C-CT--0.038773	 -1       46.7750000      17.9330000      41.7070000   L
 H-H1-0.129478	 -1       47.0570000      16.8980000      41.5320000   L
 C-CT--0.108273	 -1       45.6880000      18.3060000      40.6810000   L
 H-HC-0.045214	 -1       46.0760000      18.1380000      39.6770000   L
 H-HC-0.045214	 -1       44.8340000      17.6400000      40.8170000   L
 C-CT-0.033341	 -1       45.2120000      19.7660000      40.7970000   L
 H-HC-0.010208	 -1       44.7420000      19.9260000      41.7690000   L
 H-HC-0.010208	 -1       46.0610000      20.4430000      40.7010000   L
 C-CT--0.047841	 -1       44.1950000      20.0770000      39.6980000   L
 H-HC-0.070715	 -1       44.6640000      19.9410000      38.7210000   L
 H-HC-0.070715	 -1       43.3570000      19.3870000      39.7970000   L
 C-CT--0.069974	 -1       43.6850000      21.5140000      39.8310000   L
 H-HP-0.119522	 -1       43.1560000      21.6190000      40.7810000   L
 H-HP-0.119522	 -1       44.5390000      22.1970000      39.8420000   L
 N-N3--0.250358	 -1       42.7850000      21.8820000      38.7150000   L
 H-H-0.294561	 -1       42.3570000      22.7890000      38.9040000   L
 H-H-0.294561	 -1       43.3080000      21.9800000      37.8520000   L
 H-H-0.294561	 -1       42.0460000      21.2000000      38.5800000   L
 C-C-0.725129	 -1       48.0550000      18.7700000      41.5260000   L
 O-O--0.563157	 -1       48.3560000      19.6390000      42.3490000   L
 N-N--0.430106	 -1       48.7850000      18.5320000      40.4320000   L
 H-H-0.254543	 -1       48.4660000      17.8070000      39.7980000   L
 C-CT-0.044609	 -1       50.1190000      19.0940000      40.1820000   L
 H-H1-0.059601	 -1       50.4690000      19.5730000      41.0960000   L
 C-CT--0.093650	 -1       51.1120000      17.9540000      39.8720000   L
 H-HC-0.043321	 -1       50.7600000      17.3820000      39.0120000   L
 H-HC-0.043321	 -1       52.0730000      18.3930000      39.6080000   L
 C-C-0.583519	 -1       51.3650000      16.9940000      41.0380000   L
 O-O--0.526813	 -1       50.6780000      16.9920000      42.0530000   L
 N-N--0.781735	 -1       52.3870000      16.1650000      40.9450000   L
 H-H-0.355079	 -1       52.5460000      15.5020000      41.6870000   L
 H-H-0.355079	 -1       53.0060000      16.1700000      40.1440000   L
 C-C-0.617141	 -1       50.1300000      20.1900000      39.0900000   L
 O-O--0.523909	 -1       51.1550000      20.8440000      38.8880000   L
 N-N--0.387353	 -1       49.0060000      20.4580000      38.4190000   L
 H-H-0.300605	 -1       48.2200000      19.8270000      38.5330000   L
 C-CT-0.037470	 -1       48.8170000      21.6310000      37.5550000   L
 H-H1-0.152255	 -1       49.7180000      22.2470000      37.5370000   L
 C-CT--0.032112	 -1       48.4830000      21.2120000      36.1190000   L
 H-HC-0.030995	 -1       47.5000000      20.7340000      36.1120000   L
 H-HC-0.030995	 -1       48.4300000      22.1290000      35.5330000   L
 C-CT--0.020264	 -1       49.4750000      20.2770000      35.4170000   L
 H-HC-0.030791	 -1       50.4710000      20.7210000      35.4390000   L
 H-HC-0.030791	 -1       49.5120000      19.3200000      35.9370000   L
 C-C-0.667812	 -1       49.0800000      20.0270000      33.9560000   L
 O-O--0.628483	 -1       48.1090000      20.5680000      33.4230000   L
 N-N--0.883393	 -1       49.8180000      19.2020000      33.2530000   L
 H-H-0.408312	 -1       49.6360000      19.0720000      32.2640000   L
 H-H-0.408312	 -1       50.5780000      18.6980000      33.7050000   L
 C-C-0.418577	 -1       47.6620000      22.4910000      38.0780000   L
 O-O--0.565310	 -1       46.6840000      21.9650000      38.6050000   L
 N-N--0.451047	 -1       47.7100000      23.8060000      37.8590000   L
 H-H-0.328831	 -1       48.5140000      24.1910000      37.3620000   L
 C-CT--0.101874	 -1       46.7500000      24.7850000      38.4030000   L
 H-H1-0.174193	 -1       45.8730000      24.2780000      38.8090000   L
 C-CT-0.062238	 -1       47.4450000      25.5750000      39.5450000   L
 H-HC-0.061662	 -1       48.3130000      26.0630000      39.1040000   L
 C-CT--0.129989	 -1       46.5500000      26.6820000      40.1310000   L
 H-HC-0.030227	 -1       47.0500000      27.1580000      40.9750000   L
 H-HC-0.030227	 -1       46.3510000      27.4510000      39.3850000   L
 H-HC-0.030227	 -1       45.6070000      26.2600000      40.4750000   L
 C-CT-0.022230	 -1       47.9850000      24.6860000      40.6950000   L
 H-HC-0.011551	 -1       48.7030000      23.9700000      40.2960000   L
 H-HC-0.011551	 -1       48.5360000      25.3180000      41.3920000   L
 C-CT--0.101251	 -1       46.9250000      23.9150000      41.4950000   L
 H-HC-0.023792	 -1       46.3320000      23.2800000      40.8410000   L
 H-HC-0.023792	 -1       47.4240000      23.2860000      42.2330000   L
 H-HC-0.023792	 -1       46.2670000      24.6090000      42.0180000   L
 C-C-0.569383	 -1       46.2610000      25.7120000      37.2760000   L
 O-O--0.619535	 -1       47.0190000      26.0120000      36.3470000   L
 N-N--0.245382	 -1       45.0120000      26.1810000      37.3580000   L
 H-H-0.255339	 -1       44.4440000      25.8860000      38.1460000   L
 C-CT--0.271249	 -1       44.3790000      27.0790000      36.3760000   L
 H-H1-0.163757	 -1       45.0830000      27.2950000      35.5720000   L
 C-CT-0.237868	 -1       43.1330000      26.4450000      35.7400000   L
 H-H1-0.044688	 -1       42.6620000      27.1870000      35.0940000   L
 C-CT--0.176489	 -1       43.4940000      25.2340000      34.8820000   L
 H-HC-0.060019	 -1       42.6040000      24.8650000      34.3720000   L
 H-HC-0.060019	 -1       44.2280000      25.5230000      34.1290000   L
 H-HC-0.060019	 -1       43.9060000      24.4390000      35.5000000   L
 O-OH--0.601931	 -1       42.1940000      26.0490000      36.7220000   L
 H-HO-0.405484	 -1       42.6500000      25.4820000      37.3780000   L
 C-C-0.559878	 -1       44.0210000      28.4100000      37.0140000   L
 O-O--0.552020	 -1       43.6490000      28.4640000      38.1860000   L
 N-N--0.487560	 -1       44.0840000      29.4840000      36.2290000   L
 H-H-0.263521	 -1       44.4230000      29.3820000      35.2770000   L
 C-CT-0.009614	 -1       43.6790000      30.8200000      36.6790000   L
 H-H1-0.095501	 -1       43.0340000      30.6890000      37.5420000   L
 C-CT--0.051853	 -1       44.9030000      31.6160000      37.1580000   L
 H-HC-0.019145	 -1       44.5490000      32.4650000      37.7440000   L
 H-HC-0.019145	 -1       45.4830000      30.9920000      37.8390000   L
 C-CA-0.112601	 -1       45.8310000      32.1460000      36.0800000   L
 C-CA--0.183461	 -1       46.8770000      31.3410000      35.5870000   L
 H-HA-0.132715	 -1       46.9810000      30.3230000      35.9330000   L
 C-CA--0.181823	 -1       47.8090000      31.8730000      34.6750000   L
 H-HA-0.137303	 -1       48.6340000      31.2730000      34.3200000   L
 C-C-0.206277	 -1       47.6980000      33.2160000      34.2560000   L
 O-OH--0.421233	 -1       48.6420000      33.7500000      33.4370000   L
 H-HO-0.329691	 -1       48.5480000      34.7110000      33.3480000   L
 C-CA--0.181823	 -1       46.6310000      34.0150000      34.7260000   L
 H-HA-0.137303	 -1       46.5470000      35.0430000      34.4070000   L
 C-CA--0.183461	 -1       45.7000000      33.4770000      35.6350000   L
 H-HA-0.132715	 -1       44.9050000      34.1000000      36.0170000   L
 C-C-0.622290	 -1       42.8480000      31.5850000      35.6400000   L
 O-O--0.526607	 -1       42.8810000      31.2760000      34.4470000   L
 N-N--0.300879	 -1       42.0770000      32.5800000      36.0910000   L
 H-H-0.233693	 -1       42.0760000      32.7690000      37.0900000   L
 C-CT--0.131381	 -1       41.2110000      33.3920000      35.2240000   L
 H-H1-0.053266	 -1       41.6970000      33.4970000      34.2560000   L
 C-CT-0.036707	 -1       39.8740000      32.6540000      35.0290000   L
 H-HC-0.028012	 -1       40.0800000      31.6820000      34.5830000   L
 H-HC-0.028012	 -1       39.4110000      32.4970000      36.0010000   L
 C-CT-0.012454	 -1       38.8950000      33.4040000      34.1200000   L
 H-HC-0.002964	 -1       38.6010000      34.3400000      34.5970000   L
 H-HC-0.002964	 -1       39.3880000      33.6290000      33.1760000   L
 C-CT-0.126329	 -1       37.6310000      32.5950000      33.8220000   L
 H-H1-0.068148	 -1       37.9080000      31.6560000      33.3400000   L
 H-H1-0.068148	 -1       37.1110000      32.3780000      34.7570000   L
 N-N2--0.464890	 -1       36.7560000      33.3630000      32.9280000   L
 H-H-0.326274	 -1       37.1300000      34.2490000      32.5870000   L
 C-CA-0.565543	 -1       35.5370000      33.0380000      32.5290000   L
 N-N2--0.685774	 -1       34.9160000      31.9540000      32.9380000   L
 H-H-0.391052	 -1       35.3410000      31.3170000      33.6020000   L
 H-H-0.391052	 -1       33.9810000      31.7880000      32.5860000   L
 N-N2--0.685774	 -1       34.8970000      33.8160000      31.6890000   L
 H-H-0.391052	 -1       35.3420000      34.6450000      31.3190000   L
 H-H-0.391052	 -1       33.9800000      33.5410000      31.3670000   L
 C-C-0.730308	 -1       40.9950000      34.7870000      35.8120000   L
 O-O--0.578332	 -1       40.8170000      34.9150000      37.0210000   L
 N-N--0.451047	 -1       40.9710000      35.8290000      34.9770000   L
 H-H-0.328831	 -1       41.0720000      35.6390000      33.9810000   L
 C-CT--0.101874	 -1       40.8390000      37.2330000      35.4250000   L
 H-H1-0.174193	 -1       40.8620000      37.2630000      36.5140000   L
 C-CT-0.062238	 -1       42.0170000      38.1080000      34.9150000   L
 H-HC-0.061662	 -1       41.8860000      38.2690000      33.8430000   L
 C-CT--0.129989	 -1       41.9570000      39.4760000      35.6280000   L
 H-HC-0.030227	 -1       42.7590000      40.1250000      35.2830000   L
 H-HC-0.030227	 -1       41.0190000      39.9830000      35.4070000   L
 H-HC-0.030227	 -1       42.0500000      39.3460000      36.7070000   L
 C-CT-0.022230	 -1       43.4010000      37.4410000      35.1310000   L
 H-HC-0.011551	 -1       43.5640000      37.2760000      36.1950000   L
 H-HC-0.011551	 -1       43.4160000      36.4710000      34.6340000   L
 C-CT--0.101251	 -1       44.5920000      38.2330000      34.5700000   L
 H-HC-0.023792	 -1       45.4930000      37.6210000      34.6330000   L
 H-HC-0.023792	 -1       44.4120000      38.4890000      33.5260000   L
 H-HC-0.023792	 -1       44.7560000      39.1430000      35.1470000   L
 C-C-0.569383	 -1       39.4800000      37.8030000      34.9930000   L
 O-O--0.619535	 -1       39.0920000      37.6570000      33.8350000   L
 N-N--0.451047	 -1       38.7650000      38.4500000      35.9210000   L
 H-H-0.328831	 -1       39.1360000      38.4600000      36.8700000   L
 C-CT--0.101874	 -1       37.4190000      39.0310000      35.7060000   L
 H-H1-0.174193	 -1       37.2880000      39.1920000      34.6340000   L
 C-CT-0.062238	 -1       36.3080000      38.0460000      36.1640000   L
 H-HC-0.061662	 -1       35.3470000      38.5360000      35.9960000   L
 C-CT--0.129989	 -1       36.2940000      36.7710000      35.3010000   L
 H-HC-0.030227	 -1       37.1770000      36.1640000      35.4990000   L
 H-HC-0.030227	 -1       35.4030000      36.1810000      35.5140000   L
 H-HC-0.030227	 -1       36.2720000      37.0430000      34.2450000   L
 C-CT-0.022230	 -1       36.4240000      37.7120000      37.6690000   L
 H-HC-0.011551	 -1       37.2820000      37.0600000      37.8370000   L
 H-HC-0.011551	 -1       36.5860000      38.6330000      38.2250000   L
 C-CT--0.101251	 -1       35.1730000      37.0440000      38.2510000   L
 H-HC-0.023792	 -1       34.3040000      37.6850000      38.1010000   L
 H-HC-0.023792	 -1       34.9980000      36.0810000      37.7750000   L
 H-HC-0.023792	 -1       35.3140000      36.8840000      39.3200000   L
 C-C-0.569383	 -1       37.2510000      40.4340000      36.3350000   L
 O-O--0.619535	 -1       36.1320000      40.8550000      36.6540000   L
 N-N--0.374282	 -1       38.3500000      41.1580000      36.5760000   L
 H-H-0.253981	 -1       39.2450000      40.7760000      36.3050000   L
 C-CT--0.128844	 -1       38.3190000      42.5600000      37.0140000   L
 H-HC-0.088859	 -1       37.7420000      43.1290000      36.2890000   L
 H-HC-0.088859	 -1       37.7950000      42.6480000      37.9650000   L
 C-C-0.580584	 -1       39.6850000      43.2250000      37.1500000   L
 O-O--0.509157	 -1       40.6790000      42.5540000      37.4190000   L
 N-N--0.487560	 -1       39.7070000      44.5540000      37.0130000   L
 H-H-0.263521	 -1       38.8110000      45.0100000      36.8800000   L
 C-CT-0.009614	 -1       40.9110000      45.4070000      36.9520000   L
 H-H1-0.095501	 -1       41.7450000      44.8910000      37.4290000   L
 C-CT--0.051853	 -1       41.2820000      45.6440000      35.4730000   L
 H-HC-0.019145	 -1       40.4700000      46.1910000      34.9910000   L
 H-HC-0.019145	 -1       42.1690000      46.2780000      35.4250000   L
 C-CA-0.112601	 -1       41.5720000      44.3880000      34.6680000   L
 C-CA--0.183461	 -1       42.8710000      43.8420000      34.6420000   L
 H-HA-0.132715	 -1       43.6670000      44.3170000      35.1970000   L
 C-CA--0.181823	 -1       43.1370000      42.6780000      33.8940000   L
 H-HA-0.137303	 -1       44.1330000      42.2580000      33.8710000   L
 C-C-0.206277	 -1       42.0950000      42.0490000      33.1740000   L
 O-OH--0.421233	 -1       42.3360000      40.9110000      32.4680000   L
 H-HO-0.329691	 -1       41.5360000      40.5680000      32.0630000   L
 C-CA--0.181823	 -1       40.7950000      42.5980000      33.1970000   L
 H-HA-0.137303	 -1       39.9910000      42.1190000      32.6570000   L
 C-CA--0.183461	 -1       40.5400000      43.7660000      33.9380000   L
 H-HA-0.132715	 -1       39.5420000      44.1740000      33.9670000   L
 C-C-0.622290	 -1       40.7090000      46.7500000      37.7000000   L
 O-O--0.526607	 -1       39.6590000      46.9710000      38.3050000   L
 N-N--0.245382	 -1       41.6930000      47.6610000      37.6550000   L
 H-H-0.255339	 -1       42.5010000      47.4640000      37.0800000   L
 C-CT--0.271249	 -1       41.6810000      48.9770000      38.3270000   L
 H-H1-0.163757	 -1       40.7030000      49.1380000      38.7780000   L
 C-CT-0.237868	 -1       42.7090000      48.9740000      39.4710000   L
 H-H1-0.044688	 -1       42.4570000      48.1710000      40.1650000   L
 C-CT--0.176489	 -1       44.1590000      48.7820000      39.0160000   L
 H-HC-0.060019	 -1       44.8090000      48.7760000      39.8900000   L
 H-HC-0.060019	 -1       44.2730000      47.8320000      38.4960000   L
 H-HC-0.060019	 -1       44.4630000      49.5940000      38.3550000   L
 O-OH--0.601931	 -1       42.6420000      50.1910000      40.1640000   L
 H-HO-0.405484	 -1       41.8070000      50.2030000      40.6820000   L
 C-C-0.559878	 -1       41.9400000      50.0940000      37.2990000   L
 O-O--0.552020	 -1       42.5620000      49.8000000      36.2760000   L
 N-N--0.088116	 -1       41.4630000      51.3430000      37.4990000   L
 C-CT--0.011906	 -1       40.5480000      51.7840000      38.5380000   L
 H-H1-0.043951	 -1       41.1270000      52.1080000      39.4020000   L
 H-H1-0.043950	 -1       39.8350000      51.0170000      38.8300000   L
 C-CT-0.013059	 -1       39.8180000      52.9850000      37.9490000   L
 H-HC-0.019574	 -1       39.4420000      53.6460000      38.7300000   L
 H-HC-0.019574	 -1       39.0110000      52.6510000      37.2970000   L
 C-CT--0.003351	 -1       40.9100000      53.6460000      37.1170000   L
 H-HC-0.019352	 -1       41.4950000      54.3030000      37.7620000   L
 H-HC-0.019352	 -1       40.4900000      54.2130000      36.2870000   L
 C-CT--0.034577	 -1       41.7750000      52.4750000      36.6240000   L
 H-H1-0.059977	 -1       41.4960000      52.2220000      35.6050000   L
 C-C-0.333720	 -1       43.2510000      52.8840000      36.6410000   L
 O-O--0.434559	 -1       43.7240000      53.4730000      35.6700000   L
 N-N--0.558201	 -1       43.9690000      52.6200000      37.7390000   L
 H-H-0.319676	 -1       43.5280000      52.1320000      38.5110000   L
 C-CT-0.007225	 -1       45.2880000      53.2130000      37.9800000   L
 H-H1-0.082375	 -1       45.2140000      54.2740000      37.7490000   L
 C-CT--0.047555	 -1       45.6680000      53.0760000      39.4650000   L
 H-HC--0.014836	 -1       45.6460000      52.0180000      39.7380000   L
 H-HC--0.014836	 -1       46.6930000      53.4290000      39.5950000   L
 C-C-0.745168	 -1       44.7850000      53.8700000      40.4350000   L
 O-O2--0.730385	 -1       44.2490000      54.9420000      40.0620000   L
 O-O2--0.730385	 -1       44.6680000      53.4280000      41.5990000   L
 C-C-0.443199	 -1       46.4170000      52.6260000      37.1110000   L
 O-O--0.501445	 -1       47.4350000      53.2990000      36.9070000   L
 N-N--0.355153	 -1       46.2570000      51.3940000      36.6070000   L
 H-H-0.262417	 -1       45.3550000      50.9500000      36.7310000   L
 C-CT--0.101497	 -1       47.3360000      50.5900000      36.0230000   L
 H-H1-0.136951	 -1       48.0710000      51.2630000      35.5860000   L
 C-CT--0.144399	 -1       47.9960000      49.7910000      37.1700000   L
 H-HC-0.052533	 -1       48.3130000      50.4910000      37.9450000   L
 H-HC-0.052533	 -1       47.2380000      49.1370000      37.6070000   L
 C-CT-0.191982	 -1       49.2090000      48.9260000      36.7670000   L
 H-HC-0.000825	 -1       48.9060000      48.2100000      36.0020000   L
 C-CT--0.123036	 -1       50.3650000      49.7690000      36.2100000   L
 H-HC-0.022376	 -1       50.0670000      50.2570000      35.2820000   L
 H-HC-0.022376	 -1       50.6560000      50.5260000      36.9390000   L
 H-HC-0.022376	 -1       51.2220000      49.1280000      35.9970000   L
 C-CT--0.123036	 -1       49.7030000      48.1380000      37.9900000   L
 H-HC-0.022376	 -1       48.8970000      47.5160000      38.3800000   L
 H-HC-0.022376	 -1       50.5340000      47.4910000      37.7040000   L
 H-HC-0.022376	 -1       50.0360000      48.8220000      38.7720000   L
 C-C-0.573471	 -1       46.8330000      49.6610000      34.9080000   L
 O-O--0.557847	 -1       45.8920000      48.8930000      35.0920000   L
 N-N--0.558201	 -1       47.5170000      49.7160000      33.7640000   L
 H-H-0.319676	 -1       48.1930000      50.4690000      33.6840000   L
 C-CT-0.007225	 -1       47.2500000      48.9530000      32.5400000   L
 H-H1-0.082375	 -1       46.4170000      49.4360000      32.0310000   L
 C-CT--0.047555	 -1       48.4720000      49.1020000      31.6240000   L
 H-HC--0.014836	 -1       48.5180000      50.1240000      31.2640000   L
 H-HC--0.014836	 -1       49.3790000      48.9070000      32.1970000   L
 C-C-0.745168	 -1       48.4350000      48.1740000      30.4140000   L
 O-O2--0.730385	 -1       49.4780000      47.5480000      30.1250000   L
 O-O2--0.730385	 -1       47.3760000      48.0950000      29.7480000   L
 C-C-0.443199	 -1       46.9210000      47.4570000      32.7570000   L
 O-O--0.501445	 -1       47.8090000      46.7010000      33.1670000   L
 N-N--0.088116	 -1       45.7080000      46.9940000      32.3880000   L
 C-CT--0.011906	 -1       44.5540000      47.8180000      32.0440000   L
 H-H1-0.043951	 -1       44.7000000      48.2620000      31.0590000   L
 H-H1-0.043950	 -1       44.3930000      48.6010000      32.7870000   L
 C-CT-0.013059	 -1       43.3540000      46.8760000      32.0120000   L
 H-HC-0.019574	 -1       42.6060000      47.2010000      31.2890000   L
 H-HC-0.019574	 -1       42.9190000      46.8030000      33.0090000   L
 C-CT--0.003351	 -1       43.9900000      45.5420000      31.6280000   L
 H-HC-0.019352	 -1       44.1690000      45.5140000      30.5540000   L
 H-HC-0.019352	 -1       43.3770000      44.6960000      31.9330000   L
 C-CT--0.034577	 -1       45.3300000      45.5810000      32.3640000   L
 H-H1-0.059977	 -1       45.1590000      45.2700000      33.3940000   L
 C-C-0.333720	 -1       46.3470000      44.6210000      31.7250000   L
 O-O--0.434559	 -1       46.5470000      43.5340000      32.2600000   L
 N-N--0.423392	 -1       47.0270000      44.9950000      30.6300000   L
 H-H-0.306811	 -1       46.8520000      45.9090000      30.2240000   L
 C-CT-0.031633	 -1       48.0500000      44.1360000      30.0040000   L
 H-H1-0.065100	 -1       47.6230000      43.1400000      29.8750000   L
 C-CT-0.074772	 -1       48.3830000      44.6870000      28.6010000   L
 H-HC--0.003535	 -1       47.4540000      44.8180000      28.0440000   L
 H-HC--0.003535	 -1       48.8520000      45.6600000      28.7010000   L
 C-CT--0.033909	 -1       49.3080000      43.7730000      27.7870000   L
 H-HC--0.004135	 -1       50.2300000      43.6070000      28.3430000   L
 H-HC--0.004135	 -1       48.8150000      42.8100000      27.6450000   L
 C-C-0.765188	 -1       49.6910000      44.3500000      26.4210000   L
 O-O2--0.824035	 -1       49.8980000      45.5800000      26.2890000   L
 O-O2--0.824035	 -1       49.9310000      43.5490000      25.4850000   L
 C-C-0.469735	 -1       49.3090000      43.9820000      30.8920000   L
 O-O--0.592528	 -1       49.9300000      42.9150000      30.9220000   L
 N-N--0.245382	 -1       49.6520000      45.0300000      31.6550000   L
 H-H-0.255339	 -1       49.0910000      45.8660000      31.5440000   L
 C-CT--0.271249	 -1       50.7440000      45.0790000      32.6470000   L
 H-H1-0.163757	 -1       51.6000000      44.5270000      32.2590000   L
 C-CT-0.237868	 -1       51.1650000      46.5420000      32.8600000   L
 H-H1-0.044688	 -1       50.3130000      47.1240000      33.2150000   L
 C-CT--0.176489	 -1       52.3100000      46.7210000      33.8520000   L
 H-HC-0.060019	 -1       52.6520000      47.7560000      33.8440000   L
 H-HC-0.060019	 -1       51.9650000      46.4870000      34.8590000   L
 H-HC-0.060019	 -1       53.1380000      46.0650000      33.5880000   L
 O-OH--0.601931	 -1       51.6100000      47.0630000      31.6250000   L
 H-HO-0.405484	 -1       50.8230000      47.1810000      31.0490000   L
 C-C-0.559878	 -1       50.3550000      44.4150000      33.9720000   L
 O-O--0.552020	 -1       51.2080000      43.8040000      34.6150000   L
 N-N--0.450087	 -1       49.0810000      44.4870000      34.3600000   L
 H-H-0.440048	 -1       48.4750000      45.1100000      33.8300000   L
 C-CT--0.051858	 -1       48.4900000      43.7210000      35.4760000   L
 H-H1--0.026204	 -1       49.0810000      43.9160000      36.3730000   L