%chk=mmp2_partial_r.chk
%mem=3700MB
%nprocshared=4

#P ONIOM(B3LYP/6-31G(d):AMBER=HardFirst) geom=connectivity nosymm iop(2/15=3) test

ONIOM inputfile generated by pdb2oniom from PDB file mmp2_partial_r.pdb. No connectivity generated.
Please use GaussView read mmp2_partial_r.gjf, and generate connectivity information.

0 1 0 1 0 1
 N-N3-0.096600   -1       41.5070000      23.2020000      52.2750000   L
 H-H-0.216500    -1       40.5600000      22.8410000      52.2490000   L
 H-H-0.216500    -1       41.6870000      23.6530000      51.3840000   L
 H-H-0.216500    -1       41.5590000      23.9020000      53.0060000   L
 C-CT--0.001500  -1       42.4900000      22.1150000      52.5110000   L
 H-HP-0.118000   -1       42.3770000      21.7930000      53.5460000   L
 C-CT-0.021200   -1       42.2070000      20.8970000      51.6050000   L
 H-HC-0.028300   -1       42.8750000      20.0870000      51.8970000   L
 H-HC-0.028300   -1       41.1860000      20.5620000      51.7900000   L
 C-CT--0.004800  -1       42.3840000      21.1510000      50.0960000   L
 H-HC-0.012100   -1       41.6760000      21.9060000      49.7620000   L
 H-HC-0.012100   -1       43.3920000      21.5200000      49.9160000   L
 C-CT--0.060800  -1       42.1800000      19.8860000      49.2490000   L
 H-HC-0.063300   -1       42.5840000      20.0650000      48.2500000   L
 H-HC-0.063300   -1       42.7340000      19.0640000      49.6980000   L
 C-CT--0.018100  -1       40.6980000      19.5150000      49.1210000   L
 H-HP-0.117100   -1       40.2480000      19.4620000      50.1160000   L
 H-HP-0.117100   -1       40.1900000      20.3090000      48.5650000   L
 N-N3--0.376400  -1       40.5180000      18.2200000      48.4260000   L
 H-H-0.338200    -1       40.8830000      17.4470000      48.9790000   L
 H-H-0.338200    -1       39.5340000      18.0430000      48.2460000   L
 H-H-0.338200    -1       41.0080000      18.2010000      47.5300000   L
 C-C-0.721400    -1       43.9210000      22.6480000      52.3620000   L
 O-O--0.601300   -1       44.0900000      23.6070000      51.6120000   L
 N-N--0.088116	 -1       44.9360000      22.0760000      53.0430000   L
 C-CT--0.011906	 -1       44.8260000      20.9730000      53.9910000   L
 H-H1-0.043951	 -1       44.4230000      20.0750000      53.5240000   L
 H-H1-0.043950	 -1       44.1980000      21.2780000      54.8310000   L
 C-CT-0.013059	 -1       46.2470000      20.7070000      54.4890000   L
 H-HC-0.019574	 -1       46.7500000      20.0100000      53.8190000   L
 H-HC-0.019574	 -1       46.2540000      20.3330000      55.5130000   L
 C-CT--0.003351	 -1       46.9100000      22.0760000      54.3790000   L
 H-HC-0.019352	 -1       47.9960000      21.9980000      54.3050000   L
 H-HC-0.019352	 -1       46.6340000      22.6820000      55.2440000   L
 C-CT--0.034577	 -1       46.2750000      22.6700000      53.1180000   L
 H-H1-0.059977	 -1       46.1880000      23.7490000      53.2510000   L
 C-C-0.333720	 -1       47.1550000      22.4320000      51.8830000   L
 O-O--0.434559	 -1       48.1620000      23.1160000      51.7360000   L
 N-N--0.435875	 -1       46.7970000      21.5030000      50.9870000   L
 H-H-0.251302	 -1       45.9690000      20.9490000      51.1500000   L
 C-CT--0.038773	 -1       47.5190000      21.2520000      49.7290000   L
 H-H1-0.129478	 -1       48.0720000      22.1500000      49.4510000   L
 C-CT--0.108273	 -1       48.5180000      20.0820000      49.8920000   L
 H-HC-0.045214	 -1       47.9570000      19.1540000      50.0190000   L
 H-HC-0.045214	 -1       49.1050000      20.0000000      48.9760000   L
 C-CT-0.033341	 -1       49.4800000      20.2340000      51.0830000   L
 H-HC-0.010208	 -1       49.9730000      21.2040000      51.0220000   L
 H-HC-0.010208	 -1       48.8980000      20.1900000      52.0040000   L
 C-CT--0.047841	 -1       50.5570000      19.1380000      51.1310000   L
 H-HC-0.070715	 -1       50.1430000      18.1940000      50.7750000   L
 H-HC-0.070715	 -1       51.3860000      19.4190000      50.4800000   L
 C-CT--0.069974	 -1       51.0390000      18.9620000      52.5790000   L
 H-HP-0.119522	 -1       51.4190000      19.9150000      52.9580000   L
 H-HP-0.119522	 -1       50.1830000      18.6790000      53.1980000   L
 N-N3--0.250358	 -1       52.0830000      17.9210000      52.7120000   L
 H-H-0.294561	 -1       52.3370000      17.7900000      53.6900000   L
 H-H-0.294561	 -1       51.7640000      17.0160000      52.3710000   L
 H-H-0.294561	 -1       52.9160000      18.1550000      52.1960000   L
 C-C-0.725129	 -1       46.5250000      20.9410000      48.5980000   L
 O-O--0.563157	 -1       45.4790000      20.3360000      48.8440000   L
 N-N--0.427579	  0       46.8480000      21.3180000      47.3580000   L
 H-H-0.241716	  0       47.7130000      21.8170000      47.2110000   L
 C-CT--0.020082	  0       46.0440000      20.9590000      46.1810000   L
 H-H1-0.106629	  0       45.0110000      21.2730000      46.3510000   L
 C-CT--0.098364	  0       46.5770000      21.7190000      44.9530000   L
 H-HC-0.065424	  0       47.6300000      21.4760000      44.8040000   L
 H-HC-0.065424	  0       46.0350000      21.3800000      44.0700000   L
 C-C*--0.099797	  0       46.4320000      23.2100000      45.0280000   L
 C-CW--0.174053	  0       47.3800000      24.0750000      45.4560000   L
 H-H4-0.170633	  0       48.3740000      23.7990000      45.7860000   L
 N-NA--0.298433	  0       46.8710000      25.3590000      45.4520000   L
 H-H-0.322375	  0       47.3530000      26.1690000      45.8390000   L
 C-CN-0.141523	  0       45.5690000      25.3910000      45.0130000   L
 C-CA--0.210701	  0       44.6360000      26.4280000      44.8700000   L
 H-HA-0.125512	  0       44.9150000      27.4400000      45.1230000   L
 C-CA--0.133022	  0       43.3470000      26.1280000      44.3990000   L
 H-HA-0.119467	  0       42.6140000      26.9140000      44.2780000   L
 C-CA--0.164054	  0       43.0190000      24.8010000      44.0710000   L
 H-HA-0.119250	  0       42.0330000      24.5710000      43.6900000   L
 C-CA--0.153992	  0       43.9630000      23.7680000      44.2260000   L
 H-HA-0.123084	  0       43.6920000      22.7570000      43.9690000   L
 C-CB-0.089641	  0       45.2620000      24.0310000      44.7120000   L
 C-C-0.584129	  0       46.0330000      19.4340000      45.9480000   L
 O-O--0.494730	  0       47.0090000      18.7430000      46.2490000   L
 N-N--0.558201	 -1       44.9570000      18.9040000      45.3660000   L
 H-H-0.319676	 -1       44.1810000      19.5300000      45.1540000   L
 C-CT-0.007225	 -1       44.8140000      17.4800000      44.9990000   L
 H-H1-0.082375	 -1       45.1090000      16.8610000      45.8470000   L
 C-CT--0.047555	 -1       43.3370000      17.1790000      44.6860000   L
 H-HC--0.014836	 -1       43.0330000      17.7650000      43.8160000   L
 H-HC--0.014836	 -1       43.2390000      16.1240000      44.4280000   L
 C-C-0.745168	 -1       42.3940000      17.4760000      45.8560000   L
 O-O2--0.730385	 -1       42.5950000      16.9180000      46.9600000   L
 O-O2--0.730385	 -1       41.4430000      18.2760000      45.6760000   L
 C-C-0.443199	 -1       45.6900000      17.0710000      43.7930000   L
 O-O--0.501445	 -1       45.9220000      15.8840000      43.5500000   L
 N-N--0.451047	 -1       47.7100000      23.8060000      37.8590000   L
 H-H-0.328831	 -1       48.5140000      24.1910000      37.3620000   L
 C-CT--0.101874	 -1       46.7500000      24.7850000      38.4030000   L
 H-H1-0.174193	 -1       45.8730000      24.2780000      38.8090000   L
 C-CT-0.062238	 -1       47.4450000      25.5750000      39.5450000   L
 H-HC-0.061662	 -1       48.3130000      26.0630000      39.1040000   L
 C-CT--0.129989	 -1       46.5500000      26.6820000      40.1310000   L
 H-HC-0.030227	 -1       47.0500000      27.1580000      40.9750000   L
 H-HC-0.030227	 -1       46.3510000      27.4510000      39.3850000   L
 H-HC-0.030227	 -1       45.6070000      26.2600000      40.4750000   L
 C-CT-0.022230	 -1       47.9850000      24.6860000      40.6950000   L
 H-HC-0.011551	 -1       48.7030000      23.9700000      40.2960000   L
 H-HC-0.011551	 -1       48.5360000      25.3180000      41.3920000   L
 C-CT--0.101251	 -1       46.9250000      23.9150000      41.4950000   L
 H-HC-0.023792	 -1       46.3320000      23.2800000      40.8410000   L
 H-HC-0.023792	 -1       47.4240000      23.2860000      42.2330000   L
 H-HC-0.023792	 -1       46.2670000      24.6090000      42.0180000   L
 C-C-0.569383	 -1       46.2610000      25.7120000      37.2760000   L
 O-O--0.619535	 -1       47.0190000      26.0120000      36.3470000   L
 N-N--0.487560	 -1       44.0840000      29.4840000      36.2290000   L
 H-H-0.263521	 -1       44.4230000      29.3820000      35.2770000   L
 C-CT-0.009614	 -1       43.6790000      30.8200000      36.6790000   L
 H-H1-0.095501	 -1       43.0340000      30.6890000      37.5420000   L
 C-CT--0.051853	 -1       44.9030000      31.6160000      37.1580000   L
 H-HC-0.019145	 -1       44.5490000      32.4650000      37.7440000   L
 H-HC-0.019145	 -1       45.4830000      30.9920000      37.8390000   L
 C-CA-0.112601	 -1       45.8310000      32.1460000      36.0800000   L
 C-CA--0.183461	 -1       46.8770000      31.3410000      35.5870000   L
 H-HA-0.132715	 -1       46.9810000      30.3230000      35.9330000   L
 C-CA--0.181823	 -1       47.8090000      31.8730000      34.6750000   L
 H-HA-0.137303	 -1       48.6340000      31.2730000      34.3200000   L
 C-C-0.206277	 -1       47.6980000      33.2160000      34.2560000   L
 O-OH--0.421233	 -1       48.6420000      33.7500000      33.4370000   L
 H-HO-0.329691	 -1       48.5480000      34.7110000      33.3480000   L
 C-CA--0.181823	 -1       46.6310000      34.0150000      34.7260000   L
 H-HA-0.137303	 -1       46.5470000      35.0430000      34.4070000   L
 C-CA--0.183461	 -1       45.7000000      33.4770000      35.6350000   L
 H-HA-0.132715	 -1       44.9050000      34.1000000      36.0170000   L
 C-C-0.622290	 -1       42.8480000      31.5850000      35.6400000   L
 O-O--0.526607	 -1       42.8810000      31.2760000      34.4470000   L
 N-N--0.451047	 -1       40.9710000      35.8290000      34.9770000   L
 H-H-0.328831	 -1       41.0720000      35.6390000      33.9810000   L
 C-CT--0.101874	 -1       40.8390000      37.2330000      35.4250000   L
 H-H1-0.174193	 -1       40.8620000      37.2630000      36.5140000   L
 C-CT-0.062238	 -1       42.0170000      38.1080000      34.9150000   L
 H-HC-0.061662	 -1       41.8860000      38.2690000      33.8430000   L
 C-CT--0.129989	 -1       41.9570000      39.4760000      35.6280000   L
 H-HC-0.030227	 -1       42.7590000      40.1250000      35.2830000   L
 H-HC-0.030227	 -1       41.0190000      39.9830000      35.4070000   L
 H-HC-0.030227	 -1       42.0500000      39.3460000      36.7070000   L
 C-CT-0.022230	 -1       43.4010000      37.4410000      35.1310000   L
 H-HC-0.011551	 -1       43.5640000      37.2760000      36.1950000   L
 H-HC-0.011551	 -1       43.4160000      36.4710000      34.6340000   L
 C-CT--0.101251	 -1       44.5920000      38.2330000      34.5700000   L
 H-HC-0.023792	 -1       45.4930000      37.6210000      34.6330000   L
 H-HC-0.023792	 -1       44.4120000      38.4890000      33.5260000   L
 H-HC-0.023792	 -1       44.7560000      39.1430000      35.1470000   L
 C-C-0.569383	 -1       39.4800000      37.8030000      34.9930000   L
 O-O--0.619535	 -1       39.0920000      37.6570000      33.8350000   L
 N-N--0.450087	 -1       49.0810000      44.4870000      34.3600000   L
 H-H-0.440048	 -1       48.4750000      45.1100000      33.8300000   L
 C-CT--0.051858	 -1       48.4900000      43.7210000      35.4760000   L
 H-H1--0.026204	 -1       49.0810000      43.9160000      36.3730000   L
 C-CT-0.395217	 -1       47.0360000      44.1850000      35.7430000   L
 H-HC--0.115672	 -1       46.5160000      44.2380000      34.7900000   L
 C-CT--0.090132	 -1       46.2310000      43.2360000      36.6460000   L
 H-HC--0.008985	 -1       46.7770000      43.0390000      37.5670000   L
 H-HC--0.008985	 -1       45.2650000      43.6790000      36.8900000   L
 H-HC--0.008985	 -1       46.0460000      42.2970000      36.1250000   L
 C-CT--0.090132	 -1       47.0130000      45.5930000      36.3630000   L
 H-HC--0.008985	 -1       47.4900000      45.5810000      37.3410000   L
 H-HC--0.008985	 -1       47.5410000      46.2970000      35.7240000   L
 H-HC--0.008985	 -1       45.9830000      45.9340000      36.4720000   L
 C-C-0.447359	 -1       48.5410000      42.2090000      35.1910000   L
 O-O--0.404629	 -1       48.9550000      41.4310000      36.0480000   L
 N-N--0.404773	 -1       52.1650000      41.0100000      35.6090000   L
 H-H-0.294276	 -1       51.3970000      41.6300000      35.3670000   L
 C-CT--0.027733	 -1       52.5280000      40.8770000      37.0210000   L
 H-H1-0.120802	 -1       53.6090000      40.9870000      37.1200000   L
 C-CT--0.229951	 -1       51.8420000      42.0020000      37.8130000   L
 H-HC-0.077428	 -1       50.7600000      41.9470000      37.6990000   L
 H-HC-0.077428	 -1       52.0700000      41.9030000      38.8730000   L
 H-HC-0.077428	 -1       52.1840000      42.9750000      37.4610000   L
 C-C-0.570224	 -1       52.1570000      39.4970000      37.5900000   L
 O-O--0.555129	 -1       52.9750000      38.8680000      38.2660000   L
 N-N--0.371290	  0       50.9510000      38.9980000      37.2920000   L
 H-H-0.234053	  0       50.3100000      39.5640000      36.7480000   L
 C-CT--0.030057	  0       50.5160000      37.6780000      37.7540000   L
 H-H1-0.102448	  0       50.6780000      37.6260000      38.8310000   L
 C-CT--0.098720	  0       49.0140000      37.4890000      37.4870000   L
 H-HC-0.060989	  0       48.8330000      37.5750000      36.4140000   L
 H-HC-0.060989	  0       48.7350000      36.4770000      37.7870000   L
 C-CA-0.021313	  0       48.1110000      38.4580000      38.2350000   L
 C-CA--0.083109	  0       48.2420000      38.6240000      39.6300000   L
 H-HA-0.098466	  0       48.9800000      38.0610000      40.1820000   L
 C-CA--0.156974	  0       47.4160000      39.5290000      40.3180000   L
 H-HA-0.123731	  0       47.5310000      39.6620000      41.3840000   L
 C-CA--0.099824	  0       46.4400000      40.2610000      39.6220000   L
 H-HA-0.114679	  0       45.8020000      40.9540000      40.1530000   L
 C-CA--0.156974	  0       46.2910000      40.0840000      38.2360000   L
 H-HA-0.123731	  0       45.5320000      40.6350000      37.7010000   L
 C-CA--0.083109	  0       47.1280000      39.1900000      37.5430000   L
 H-HA-0.098466	  0       47.0150000      39.0750000      36.4750000   L
 C-C-0.547987	  0       51.3550000      36.5460000      37.1490000   L
 O-O--0.506795	  0       51.6940000      35.6050000      37.8630000   L
 N-N--0.404773	 -1       51.7770000      36.6640000      35.8820000   L
 H-H-0.294276	 -1       51.4630000      37.4610000      35.3410000   L
 C-CT--0.027733	 -1       52.7020000      35.7120000      35.2580000   L
 H-H1-0.120802	 -1       52.2430000      34.7210000      35.2650000   L
 C-CT--0.229951	 -1       52.9180000      36.1280000      33.7960000   L
 H-HC-0.077428	 -1       53.5760000      35.4090000      33.3060000   L
 H-HC-0.077428	 -1       51.9630000      36.1440000      33.2690000   L
 H-HC-0.077428	 -1       53.3740000      37.1170000      33.7430000   L
 C-C-0.570224	 -1       54.0300000      35.5910000      36.0350000   L
 O-O--0.555129	 -1       54.4840000      34.4800000      36.3130000   L
 N-N--0.300879	 -1       54.6100000      36.7200000      36.4690000   L
 H-H-0.233693	 -1       54.1790000      37.6020000      36.2260000   L
 C-CT--0.131381	 -1       55.8150000      36.7360000      37.3150000   L
 H-H1-0.053266	 -1       56.6110000      36.2010000      36.7940000   L
 C-CT-0.036707	 -1       56.2860000      38.1790000      37.5550000   L
 H-HC-0.028012	 -1       55.4610000      38.7770000      37.9360000   L
 H-HC-0.028012	 -1       57.0710000      38.1730000      38.3110000   L
 C-CT-0.012454	 -1       56.8340000      38.8220000      36.2740000   L
 H-HC-0.002964	 -1       57.7700000      38.3420000      35.9930000   L
 H-HC-0.002964	 -1       56.1210000      38.6740000      35.4660000   L
 C-CT-0.126329	 -1       57.0550000      40.3290000      36.4260000   L
 H-H1-0.068148	 -1       57.3560000      40.7290000      35.4580000   L
 H-H1-0.068148	 -1       56.1100000      40.7950000      36.7120000   L
 N-N2--0.464890	 -1       58.0950000      40.6600000      37.4110000   L
 H-H-0.326274	 -1       58.6890000      39.8970000      37.7320000   L
 C-CA-0.565543	 -1       58.4180000      41.8870000      37.7980000   L
 N-N2--0.685774	 -1       57.7640000      42.9390000      37.3530000   L
 H-H-0.391052	 -1       57.0450000      42.8210000      36.6480000   L
 H-H-0.391052	 -1       58.0620000      43.8780000      37.5910000   L
 N-N2--0.685774	 -1       59.4150000      42.0700000      38.6330000   L
 H-H-0.391052	 -1       59.9790000      41.2880000      38.9520000   L
 H-H-0.391052	 -1       59.6870000      43.0060000      38.9180000   L
 C-C-0.730308	 -1       55.5830000      36.0240000      38.6540000   L
 O-O--0.578332	 -1       56.3750000      35.1650000      39.0450000   L
 N-N--0.404773	 -1       54.4720000      36.3130000      39.3370000   L
 H-H-0.294276	 -1       53.8500000      37.0240000      38.9700000   L
 C-CT--0.027733	 -1       54.1220000      35.6530000      40.5980000   L
 H-H1-0.120802	 -1       54.9420000      35.8080000      41.3040000   L
 C-CT--0.229951	 -1       52.8760000      36.3380000      41.1700000   L
 H-HC-0.077428	 -1       52.0280000      36.2000000      40.4990000   L
 H-HC-0.077428	 -1       52.6380000      35.9120000      42.1450000   L
 H-HC-0.077428	 -1       53.0620000      37.4060000      41.2950000   L
 C-C-0.570224	 -1       53.9660000      34.1210000      40.4540000   L
 O-O--0.555129	 -1       54.4560000      33.3810000      41.3070000   L
 N-N--0.371290	 -1       53.3780000      33.6300000      39.3540000   L
 H-H-0.234053	 -1       52.9440000      34.2760000      38.7030000   L
 C-CT--0.030057	 -1       53.3320000      32.1950000      39.0440000   L
 H-H1-0.102448	 -1       52.9870000      31.6650000      39.9330000   L
 C-CT--0.098720	 -1       52.3360000      31.9320000      37.9020000   L
 H-HC-0.060989	 -1       52.6080000      32.5470000      37.0420000   L
 H-HC-0.060989	 -1       52.4320000      30.8910000      37.5920000   L
 C-CA-0.021313	 -1       50.8760000      32.1660000      38.2540000   L
 C-CA--0.083109	 -1       50.3100000      31.5410000      39.3830000   L
 H-HA-0.098466	 -1       50.9090000      30.8900000      40.0040000   L
 C-CA--0.156974	 -1       48.9610000      31.7550000      39.7120000   L
 H-HA-0.123731	 -1       48.5440000      31.2890000      40.5910000   L
 C-CA--0.099824	 -1       48.1650000      32.5930000      38.9130000   L
 H-HA-0.114679	 -1       47.1300000      32.7670000      39.1730000   L
 C-CA--0.156974	 -1       48.7240000      33.2150000      37.7840000   L
 H-HA-0.123731	 -1       48.1170000      33.8630000      37.1690000   L
 C-CA--0.083109	 -1       50.0710000      32.9920000      37.4470000   L
 H-HA-0.098466	 -1       50.4860000      33.4670000      36.5700000   L
 C-C-0.547987	 -1       54.7110000      31.6040000      38.7090000   L
 O-O--0.506795	 -1       55.0040000      30.4800000      39.1190000   L
 N-N--0.387353	 -1       55.5790000      32.3390000      38.0040000   L
 H-H-0.300605	 -1       55.2590000      33.2240000      37.6220000   L
 C-CT-0.037470	 -1       56.9660000      31.9260000      37.7510000   L
 H-H1-0.152255	 -1       56.9790000      30.9350000      37.2930000   L
 C-CT--0.032112	 -1       57.6410000      32.9090000      36.7830000   L
 H-HC-0.030995	 -1       57.4680000      33.9280000      37.1240000   L
 H-HC-0.030995	 -1       58.7170000      32.7360000      36.7940000   L
 C-CT--0.020264	 -1       57.1530000      32.7700000      35.3320000   L
 H-HC-0.030791	 -1       57.5440000      31.8490000      34.8990000   L
 H-HC-0.030791	 -1       56.0660000      32.7130000      35.3120000   L
 C-C-0.667812	 -1       57.6010000      33.9550000      34.4760000   L
 O-O--0.628483	 -1       58.6450000      34.5590000      34.6820000   L
 N-N--0.883393	 -1       56.8380000      34.3660000      33.4940000   L
 H-H-0.408312	 -1       57.1340000      35.2070000      33.0090000   L
 H-H-0.408312	 -1       55.9900000      33.8600000      33.2620000   L
 C-C-0.418577	 -1       57.7740000      31.8160000      39.0540000   L
 O-O--0.565310	 -1       58.4290000      30.7970000      39.2660000   L
 N-N--0.450087	 -1       57.7030000      32.8060000      39.9510000   L
 H-H-0.440048	 -1       57.1850000      33.6510000      39.7020000   L
 C-CT--0.051858	 -1       58.4140000      32.7730000      41.2480000   L
 H-H1--0.026204	 -1       59.4820000      32.7090000      41.0310000   L
 C-CT-0.395217	 -1       58.1790000      34.0700000      42.0620000   L
 H-HC--0.115672	 -1       57.1090000      34.2880000      42.0690000   L
 C-CT--0.090132	 -1       58.6600000      33.9800000      43.5230000   L
 H-HC--0.008985	 -1       58.0700000      33.2470000      44.0750000   L
 H-HC--0.008985	 -1       59.7120000      33.6930000      43.5560000   L
 H-HC--0.008985	 -1       58.5380000      34.9450000      44.0150000   L
 C-CT--0.090132	 -1       58.9050000      35.2540000      41.3960000   L
 H-HC--0.008985	 -1       59.9840000      35.0940000      41.4230000   L
 H-HC--0.008985	 -1       58.5960000      35.3610000      40.3570000   L
 H-HC--0.008985	 -1       58.6690000      36.1780000      41.9230000   L
 C-C-0.447359	 -1       58.0370000      31.5260000      42.0640000   L
 O-O--0.404629	 -1       58.9220000      30.8060000      42.5250000   L
 N-N--0.427579	  0       56.7390000      31.2130000      42.1880000   L
 H-H-0.241716	  0       56.0380000      31.8510000      41.8300000   L
 C-CT--0.020082	  0       56.2940000      30.0020000      42.8870000   L
 H-H1-0.106629	  0       56.8820000      29.9140000      43.8010000   L
 C-CT--0.098364	  0       54.8230000      30.1600000      43.3040000   L
 H-HC-0.065424	  0       54.2370000      30.5120000      42.4530000   L
 H-HC-0.065424	  0       54.4340000      29.1800000      43.5850000   L
 C-C*--0.099797	  0       54.6060000      31.0720000      44.4820000   L
 C-CW--0.174053	  0       53.8850000      32.2170000      44.4870000   L
 H-H4-0.170633	  0       53.3740000      32.6240000      43.6240000   L
 N-NA--0.298433	  0       53.9190000      32.7890000      45.7480000   L
 H-H-0.322375	  0       53.4610000      33.6600000      45.9990000   L
 C-CN-0.141523	  0       54.6890000      32.0490000      46.6150000   L
 C-CA--0.210701	  0       55.0450000      32.2230000      47.9600000   L
 H-HA-0.125512	  0       54.6770000      33.0760000      48.5100000   L
 C-CA--0.133022	  0       55.8960000      31.2880000      48.5700000   L
 H-HA-0.119467	  0       56.1990000      31.4200000      49.6000000   L
 C-CA--0.164054	  0       56.3610000      30.1840000      47.8340000   L
 H-HA-0.119250	  0       57.0320000      29.4770000      48.2980000   L
 C-CA--0.153992	  0       55.9760000      30.0050000      46.4910000   L
 H-HA-0.123084	  0       56.3430000      29.1520000      45.9410000   L
 C-CB-0.089641	  0       55.1390000      30.9390000      45.8390000   L
 C-C-0.584129	  0       56.5580000      28.6970000      42.1060000   L
 O-O--0.494730	  0       56.6630000      27.6330000      42.7200000   L
 N-N--0.541430	 -1       56.7380000      28.7420000      40.7810000   L
 H-H-0.345415	 -1       56.7200000      29.6520000      40.3330000   L
 C-CT-0.118140	 -1       57.1510000      27.5640000      39.9900000   L
 H-H1-0.142177	 -1       56.4710000      26.7340000      40.1900000   L
 C-CT-0.146998	 -1       57.1080000      27.8490000      38.4770000   L
 H-H1-0.040081	 -1       57.7990000      28.6550000      38.2350000   L
 H-H1-0.040081	 -1       57.4430000      26.9570000      37.9460000   L
 O-OH--0.640312	 -1       55.8070000      28.1850000      38.0120000   L
 H-HO-0.446255	 -1       55.4870000      28.9550000      38.5250000   L
 C-C-0.483424	 -1       58.5680000      27.0930000      40.3700000   L
 O-O--0.580829	 -1       58.8140000      25.8940000      40.4840000   L
 N-N--0.450087	 -1       60.1980000      26.6650000      42.9730000   L
 H-H-0.440048	 -1       59.3250000      27.0850000      42.6750000   L
 C-CT--0.051858	 -1       60.2680000      26.0040000      44.2930000   L
 H-H1--0.026204	 -1       61.2020000      25.4430000      44.3330000   L
 C-CT-0.395217	 -1       60.3050000      27.0540000      45.4340000   L
 H-HC--0.115672	 -1       60.3430000      26.5280000      46.3880000   L
 C-CT--0.090132	 -1       61.5720000      27.9210000      45.3560000   L
 H-HC--0.008985	 -1       61.6100000      28.5800000      46.2190000   L
 H-HC--0.008985	 -1       62.4590000      27.2850000      45.3600000   L
 H-HC--0.008985	 -1       61.5700000      28.5330000      44.4540000   L
 C-CT--0.090132	 -1       59.0590000      27.9590000      45.4360000   L
 H-HC--0.008985	 -1       58.1580000      27.3550000      45.5210000   L
 H-HC--0.008985	 -1       59.0950000      28.6340000      46.2900000   L
 H-HC--0.008985	 -1       59.0090000      28.5500000      44.5220000   L
 C-C-0.447359	 -1       59.1470000      24.9700000      44.5240000   L
 O-O--0.404629	 -1       58.9510000      24.5100000      45.6520000   L
 N-N--0.245382	 -1       58.4120000      24.5920000      43.4650000   L
 H-H-0.255339	 -1       58.6640000      24.9510000      42.5500000   L
 C-CT--0.271249	 -1       57.3150000      23.6060000      43.4990000   L
 H-H1-0.163757	 -1       57.4550000      22.9480000      44.3550000   L
 C-CT-0.237868	 -1       55.9450000      24.2950000      43.6440000   L
 H-H1-0.044688	 -1       55.1700000      23.5340000      43.6800000   L
 C-CT--0.176489	 -1       55.7840000      25.1430000      44.9020000   L
 H-HC-0.060019	 -1       56.0160000      24.5400000      45.7780000   L
 H-HC-0.060019	 -1       56.4490000      26.0040000      44.8720000   L
 H-HC-0.060019	 -1       54.7540000      25.4940000      44.9740000   L
 O-OH--0.601931	 -1       55.6980000      25.0890000      42.5160000   L
 H-HO-0.405484	 -1       56.0760000      25.9710000      42.6760000   L
 C-C-0.559878	 -1       57.3320000      22.7420000      42.2280000   L
 O-O--0.552020	 -1       57.9580000      23.1350000      41.2400000   L
 N-N--0.355153	 -1       54.4130000      22.6940000      40.8610000   L
 H-H-0.262417	 -1       54.8110000      23.0780000      41.7080000   L
 C-CT--0.101497	 -1       53.1730000      23.2990000      40.3790000   L
 H-H1-0.136951	 -1       52.5130000      22.5000000      40.0500000   L
 C-CT--0.144399	 -1       52.4760000      24.0760000      41.5160000   L
 H-HC-0.052533	 -1       53.1260000      24.8950000      41.8290000   L
 H-HC-0.052533	 -1       51.5640000      24.5230000      41.1150000   L
 C-CT-0.191982	 -1       52.1030000      23.2340000      42.7570000   L
 H-HC-0.000825	 -1       53.0110000      22.8190000      43.1960000   L
 C-CT--0.123036	 -1       51.4430000      24.1320000      43.8100000   L
 H-HC-0.022376	 -1       50.5350000      24.5850000      43.4080000   L
 H-HC-0.022376	 -1       51.1880000      23.5450000      44.6930000   L
 H-HC-0.022376	 -1       52.1380000      24.9170000      44.1060000   L
 C-CT--0.123036	 -1       51.1640000      22.0680000      42.4130000   L
 H-HC-0.022376	 -1       51.6830000      21.3530000      41.7770000   L
 H-HC-0.022376	 -1       50.8630000      21.5530000      43.3260000   L
 H-HC-0.022376	 -1       50.2740000      22.4360000      41.9010000   L
 C-C-0.573471	 -1       53.4360000      24.1960000      39.1660000   L
 O-O--0.557847	 -1       54.3920000      24.9710000      39.1470000   L
 N-N--0.371290	 -1       51.2450000      26.4420000      35.7470000   L
 H-H-0.234053	 -1       52.1210000      26.7740000      35.3600000   L
 C-CT--0.030057	 -1       50.1190000      27.3800000      35.7200000   L
 H-H1-0.102448	 -1       49.2370000      26.9070000      36.1460000   L
 C-CT--0.098720	 -1       50.4810000      28.6060000      36.5810000   L
 H-HC-0.060989	 -1       51.3120000      29.1350000      36.1090000   L
 H-HC-0.060989	 -1       49.6330000      29.2940000      36.5870000   L
 C-CA-0.021313	 -1       50.8620000      28.3000000      38.0200000   L
 C-CA--0.083109	 -1       52.2070000      28.0600000      38.3650000   L
 H-HA-0.098466	 -1       52.9770000      28.1020000      37.6090000   L
 C-CA--0.156974	 -1       52.5540000      27.7540000      39.6930000   L
 H-HA-0.123731	 -1       53.5870000      27.5580000      39.9490000   L
 C-CA--0.099824	 -1       51.5610000      27.6980000      40.6850000   L
 H-HA-0.114679	 -1       51.8300000      27.4640000      41.7060000   L
 C-CA--0.156974	 -1       50.2190000      27.9540000      40.3480000   L
 H-HA-0.123731	 -1       49.4550000      27.9210000      41.1100000   L
 C-CA--0.083109	 -1       49.8710000      28.2570000      39.0190000   L
 H-HA-0.098466	 -1       48.8410000      28.4610000      38.7660000   L
 C-C-0.547987	 -1       49.7930000      27.8330000      34.2930000   L
 O-O--0.506795	 -1       50.6960000      28.0890000      33.4990000   L
 N-N--0.558201	 -1       40.7800000      27.3170000      39.3570000   L
 H-H-0.319676	 -1       41.2940000      27.0130000      38.5370000   L
 C-CT-0.007225	 -1       41.3770000      27.0950000      40.6790000   L
 H-H1-0.082375	 -1       40.6660000      26.5480000      41.3010000   L
 C-CT--0.047555	 -1       42.6560000      26.2500000      40.5890000   L
 H-HC--0.014836	 -1       43.4160000      26.8130000      40.0520000   L
 H-HC--0.014836	 -1       43.0330000      26.0790000      41.5950000   L
 C-C-0.745168	 -1       42.4570000      24.8980000      39.9040000   L